# vtk DataFile Version 5.1
vtk output
ASCII
DATASET UNSTRUCTURED_GRID
POINTS 3625 double
0 2e-05 -0.030068 10.2866 22.2975 -0.032596 16.6548 18.2791 -0.030977 
8.92122 23.0134 -0.032457 19.6944 14.8659 -0.032032 3.04384 24.3911 -0.031701 
17.689 17.145 -0.03173 21.313 12.305 -0.032248 0 24.5895 -0.031977 
15.4933 19.2473 -0.031988 13.0129 21.0473 -0.031072 6.0062 23.8564 -0.031471 
20.5741 13.6468 -0.03113 12.8329 22.3261 3.9882 6.16175 24.7825 2.76245 
18.3745 17.6572 2.59749 20.5211 15.2206 2.89453 12.9852 21.5536 1.34322 
21.9022 12.6452 1.76848 15.6499 19.4334 0.787799 3.03734 24.8066 0.572881 
9.14181 23.582 1.74562 4.51286 24.049 -0.032264 21.0875 13.0656 0.350593 
6.10316 24.3835 1.20627 12.7925 21.974 2.51561 8.97077 23.1334 0.329576 
14.511 20.3378 1.02749 10.1681 22.4923 0.236837 17.8701 17.4164 0.661286 
0 25.2543 1.54281 13.8408 20.6177 0.531212 21.5851 12.4621 0.548047 
1.44458 24.8329 0.53848 14.1817 20.0478 -0.032141 16.1944 20.0655 4.06122 
17.0077 18.3962 1.22695 19.5492 16.4415 3.22803 10.6662 22.5918 0.869933 
12.0429 21.8191 0.688486 20.2259 15.1055 1.65264 20.8466 15.3288 4.66819 
19.3194 16.1137 1.50328 7.41795 23.3512 -0.031888 3.01891 25.3199 2.65892 
14.2484 21.027 2.76632 7.56619 23.7912 0.799331 18.8596 16.0803 0.441494 
15.8181 19.6389 1.55396 4.35244 24.5916 0.636277 1.88216 25.0063 1.11171 
6.36079 26.6255 22.1788 0 24.9011 0.385759 13.723 22.9834 11.4516 
19.1073 18.3433 8.94044 21.3205 13.2262 1.21713 21.6063 16.6908 19.7259 
19.2189 19.1684 16.4527 21.1633 15.5251 7.09372 17.2052 18.7583 2.76307 
9.99543 25.4162 20.3781 14.9048 19.8048 0.347969 3.4 27.2065 24.8923 
19.5184 19.2455 24.136 20.743 13.9955 0.98187 13.8556 23.6125 22.8889 
11.0356 23.0917 3.5605 17.3008 17.812 0.451353 6.06976 24.1774 0.526688 
6.10735 26.744 25.5809 4.01179 27.1473 29.7439 17.4674 21.1794 26.9762 
5.469 26.9028 30.3438 19.9995 18.8259 30.0807 0 2e-05 60.03 
18.6525 15.981 60.0323 0 24.7546 60.0311 17.6676 17.1466 60.0315 
21.2179 12.2501 60.0324 14.2049 20.0827 60.0316 10.2631 22.3007 60.0325 
7.44907 23.4044 60.0319 11.6588 21.6901 60.0317 4.51758 24.2413 60.0316 
19.0925 16.1211 59.488 21.8553 12.6181 58.695 4.32907 25.0004 57.8756 
20.4021 13.9867 59.624 13.2163 20.6488 60.032 21.6066 12.4745 59.4886 
20.0249 15.1128 58.681 21.3085 15.8978 50.2856 20.6568 14.0509 59.0951 
14.6978 20.4663 58.6746 11.9141 22.0665 59.1069 13.4906 21.3857 58.0555 
15.449 19.1915 60.0317 10.7564 22.4092 59.6142 4.42881 24.6527 59.0838 
18.4496 17.937 56.3411 7.74536 24.176 57.9147 0 25.0362 59.2159 
17.966 17.4407 59.2628 8.89947 22.9922 60.0316 6.02655 23.918 60.0322 
12.2849 21.266 60.0313 3.22413 24.3509 60.0311 15.8879 19.5748 58.2095 
9.79407 22.7692 59.5387 19.4967 14.9894 60.0327 0 25.5371 57.2631 
0.880074 24.4688 60.0325 1.08941 24.7521 59.61 16.2958 21.2153 48.6425 
6.01732 24.1406 59.4832 12.1637 22.4828 57.0881 19.3558 16.1374 58.6125 
14.4882 20.3286 59.4669 19.5759 15.1927 59.667 7.57836 23.7577 59.4746 
16.049 20.9594 51.8884 17.2622 18.6003 57.5817 1.33264 25.1042 58.508 
2.30728 24.7651 59.3798 19.7473 16.1489 57.305 9.04292 23.1805 59.2194 
16.7139 18.4551 59.5165 1.98838 24.3381 60.0321 15.1394 20.707 56.6677 
20.0509 13.8524 60.0323 20.9315 14.1945 57.8664 15.5205 19.4542 59.2628 
16.7827 18.603 58.8892 20.9803 13.2255 59.8157 3.40109 24.758 59.0227 
13.4281 20.9615 59.4012 10.0114 22.948 58.7749 8.95549 23.5503 58.349 
6.03701 24.5879 57.8952 12.8838 24.2324 33.5844 18.2608 20.3591 38.1037 
4.57198 26.9972 37.0564 22.0468 15.8776 43.6044 12.6289 24.2429 39.888 
16.0825 22.0912 39.7196 19.7566 18.9771 36.4885 19.0953 19.5115 40.2252 
16.0695 22.1879 36.2955 5.16486 26.9552 31.9253 16.4452 21.9524 31.7804 
9.33267 22.7977 -0.0324989 9.90101 22.4997 -0.0325567 8.34383 23.1432 -0.0322385 
10.7816 22.0694 -0.032088 11.681 21.656 -0.0314034 6.63891 23.63 -0.0316579 
5.32125 23.9447 -0.0318347 3.74236 24.2284 -0.0319687 14.8369 19.6479 -0.0320646 
16.0602 18.7747 -0.0314945 0.810261 24.5481 -0.0322077 1.94062 24.4757 -0.0321391 
17.1997 17.6815 -0.0313738 18.3411 16.4151 -0.0322709 18.9255 15.7518 -0.0323919 
20.546 11.8622 -0.0318328 19.2556 11.1172 -0.0312696 17.5614 10.139 -0.0309334 
15.8052 9.12513 -0.0306876 14.0491 8.11123 -0.0305054 12.293 7.09733 -0.0304313 
10.5368 6.08343 -0.030333 8.78069 5.06953 -0.0302079 7.02455 4.05563 -0.0301191 
5.26841 3.04172 -0.0300916 3.51228 2.02782 -0.0300723 1.75614 1.01392 -0.0299941 
20.971 12.9262 -0.0317304 0 1.9301 -0.0299894 0 3.86019 -0.0300208 
0 5.79027 -0.0300753 0 7.72036 -0.0301231 0 9.65044 -0.0301572 
0 11.5805 -0.0302158 0 13.5106 -0.0304134 0 15.4407 -0.0304332 
0 17.3708 -0.030571 0 19.3009 -0.0307675 0 21.1928 -0.0309831 
0 22.8366 -0.0317567 0 23.9327 -0.0320364 21.3129 15.7614 9.19145 
21.4111 16.0084 11.2912 21.4816 16.237 13.3942 21.5347 16.414 15.5025 
21.5759 16.5522 17.6141 21.681 16.6921 21.7171 21.7617 16.6553 23.7077 
21.8487 16.5796 25.697 21.945 16.4881 27.6852 22.0432 16.3908 29.673 
22.1148 16.2856 31.6616 22.1767 16.183 33.6506 22.2253 16.085 35.6403 
22.2334 16.0125 37.6314 22.2 15.9606 39.6231 22.1392 15.9147 41.6142 
21.7267 12.5439 1.09325 21.8196 15.8821 45.8337 21.5937 15.8862 48.0632 
20.964 15.9687 52.1143 20.5882 16.0457 53.9365 20.1548 16.1108 55.7463 
20.3522 15.1505 57.5918 22.0564 12.7342 57.6309 22.3336 12.8943 55.9516 
22.6153 13.0569 54.0063 22.8612 13.1989 52.0541 23.0558 13.3112 50.0941 
23.2215 13.4069 48.1305 23.3706 13.493 46.1652 23.497 13.5659 44.1977 
23.5905 13.6199 42.2278 23.661 13.6606 40.2566 23.7158 13.6923 38.2847 
23.7545 13.7146 36.3123 23.7764 13.7273 34.3396 23.7914 13.7359 32.3668 
23.7941 13.7375 30.3939 23.7895 13.7348 28.421 23.777 13.7276 26.4482 
23.7506 13.7124 24.4755 23.7155 13.6921 22.503 23.6684 13.6649 20.5309 
23.6075 13.6298 18.5592 23.5246 13.5819 16.5887 23.4188 13.5208 14.6195 
23.2802 13.4408 12.6532 23.1125 13.344 10.6898 22.9223 13.2342 8.72921 
22.703 13.1075 6.77267 22.4397 12.9555 4.82355 22.138 12.7813 3.00444 
20.3842 14.5089 58.9165 21.1961 13.4061 58.9151 0 25.0427 0.849711 
0 2e-05 1.97193 0 2e-05 3.97394 0 2e-05 5.97594 
0 2e-05 7.97794 0 2e-05 9.97994 0 2e-05 11.9819 
0 2e-05 13.9839 0 2e-05 15.9859 0 2e-05 17.9879 
0 2e-05 19.9899 0 2e-05 21.992 0 2e-05 23.994 
0 2e-05 25.996 0 2e-05 27.998 0 2e-05 30 
0 2e-05 32.002 0 2e-05 34.004 0 2e-05 36.006 
0 2e-05 38.008 0 2e-05 40.01 0 2e-05 42.012 
0 2e-05 44.014 0 2e-05 46.016 0 2e-05 48.018 
0 2e-05 50.02 0 2e-05 52.022 0 2e-05 54.024 
0 2e-05 56.026 0 2e-05 58.028 0 25.905 55.3233 
0 26.2123 53.3291 0 26.4787 51.329 0 26.703 49.3237 
0 26.8925 47.3148 0 27.0592 45.3039 0 27.1697 43.2892 
0 27.2702 41.2738 0 27.3494 39.2576 0 27.4044 37.2405 
0 27.4437 35.2231 0 27.4699 33.2054 0 27.4761 31.1876 
0 27.4705 29.1697 0 27.4555 27.152 0 27.4286 25.1343 
0 27.3843 23.1169 0 27.33 21.0998 0 27.2699 19.0829 
0 27.1886 17.0667 0 27.0609 15.053 0 26.9098 13.0409 
0 26.731 11.0311 0 26.5004 9.02647 0 26.2497 7.02435 
0 25.9489 5.02954 0 25.5788 3.06044 0 25.2384 58.4276 
0 2.01619 60.03 0 4.03236 60.0301 0 6.04854 60.0301 
0 8.06471 60.0301 0 10.0809 60.0302 0 12.0971 60.0303 
0 14.1132 60.0304 0 16.1294 60.0305 0 18.1456 60.0306 
0 20.1617 60.0308 0 22.1063 60.0314 0 23.6458 60.032 
20.4124 11.7851 60.032 19.0547 11.0012 60.0312 17.3255 10.0029 60.0309 
15.593 9.00257 60.0306 13.8604 8.00229 60.0305 12.1279 7.002 60.0304 
10.3953 6.00172 60.0303 8.66275 5.00144 60.0302 6.9302 4.00115 60.0301 
5.19765 3.00087 60.0301 3.4651 2.00059 60.03 1.73255 1.0003 60.03 
9.9523 22.8208 0.640372 9.38812 23.0008 0.46096 9.98788 23.0324 1.25958 
8.43971 23.3954 0.498186 8.30821 23.6927 1.24498 13.818 23.1187 13.3545 
13.8937 23.2368 15.2594 13.9391 23.3405 17.166 13.9285 23.4343 19.0737 
13.9001 23.525 20.9813 13.083 22.5153 5.67509 13.3302 22.6992 7.59426 
13.5262 22.8403 9.52303 13.7097 23.7437 25.0315 13.5221 23.8687 27.1713 
13.3191 23.9914 29.3099 13.1038 24.1123 31.4474 15.9639 19.8042 2.52536 
17.391 21.221 25.0611 17.3314 21.2197 23.1449 17.2823 21.1963 21.2285 
17.2333 21.155 19.3124 17.1778 21.1018 17.3968 17.1037 21.0216 15.4827 
17.0054 20.9174 13.5709 16.8909 20.7974 11.661 16.7563 20.6572 9.75383 
16.5904 20.4851 7.85167 16.4037 20.2891 5.95373 15.1794 19.9804 1.29672 
14.4008 20.6269 1.757 16.7859 21.6947 30.179 17.1267 21.4371 28.5776 
13.8123 20.8939 1.17231 16.2574 22.0701 34.0379 12.7988 24.2359 35.6856 
12.7139 24.2394 37.7868 16.076 22.1395 38.0076 12.6411 24.1398 41.8165 
12.6516 24.0232 43.7442 12.6605 23.8852 45.6704 12.6534 23.6937 47.5921 
12.6167 23.5023 49.5135 12.5526 23.2934 51.4323 12.4675 23.0612 53.3476 
12.3184 22.7718 55.2481 16.3227 21.4093 46.8591 16.2942 21.5884 45.0743 
16.2242 21.7563 43.2895 16.1521 21.9235 41.5046 16.1724 21.0873 50.2655 
15.5973 20.8691 54.2934 14.8728 20.5617 57.8793 12.0218 22.2461 58.236 
12.6181 21.7622 58.6368 4.98468 26.968 33.4846 4.78067 26.9824 35.2503 
5.88207 26.8 27.2618 5.66212 26.8547 28.9029 4.47574 26.9682 38.9967 
4.39351 26.9109 40.937 4.3257 26.8296 42.877 4.26588 26.7237 44.8161 
4.20915 26.5868 46.7532 4.16173 26.418 48.6881 4.1346 26.2193 50.6205 
4.13842 25.9804 52.5485 4.17986 25.689 54.4684 4.25714 25.3413 56.361 
6.23407 26.6847 23.8799 9.98437 25.3317 18.4548 9.95523 25.2406 16.532 
9.90074 25.14 14.6104 9.77234 25.0144 12.6936 9.65752 24.8829 10.7765 
9.57445 24.6801 8.86384 9.47865 24.4554 6.95423 9.36149 24.1665 5.0545 
9.24279 23.8668 3.18664 7.91104 24.495 56.1753 8.08305 24.7985 54.2187 
8.25504 25.0329 52.2434 8.42954 25.2179 50.263 8.6086 25.3829 48.2811 
8.77351 25.5087 46.2952 8.92252 25.6046 44.3064 9.06155 25.6684 42.3155 
9.17566 25.7145 40.3226 9.25619 25.7493 38.3278 9.32375 25.7713 36.3323 
9.39158 25.7747 34.3367 9.48332 25.7546 32.3422 9.58266 25.7251 30.3482 
9.68147 25.6834 28.3543 9.76725 25.6269 26.3602 9.84934 25.5663 24.3661 
9.92292 25.4921 22.3721 6.20634 25.099 4.54124 6.23229 25.4094 6.48537 
6.2493 25.683 8.43514 6.27726 25.9148 10.3901 6.31722 26.0869 12.3511 
6.36256 26.232 14.3142 6.4027 26.3666 16.2781 6.40619 26.4679 18.2444 
6.39055 26.553 20.2114 7.6461 23.9274 58.8418 6.12675 24.5442 1.83296 
5.34055 24.3588 59.3131 6.76944 23.9562 59.4791 6.74006 24.0044 0.648814 
1.05468 25.1153 1.30124 3.03015 25.007 1.3872 2.46154 24.9061 0.841463 
3.24882 27.1963 22.8586 3.12815 27.1511 20.8234 3.01877 27.0928 18.7878 
2.93451 27.0051 16.7521 2.90587 26.8747 14.7172 2.89298 26.7236 12.6835 
2.89069 26.5316 10.6533 2.92259 26.2983 8.62773 2.96794 26.024 6.60745 
2.98864 25.7066 4.59703 3.82671 27.1652 28.2761 3.61591 27.1856 26.6045 
19.1637 18.5683 10.8159 19.2041 18.7829 12.6929 19.2107 18.9751 14.5729 
19.3043 19.2054 18.3729 19.3827 19.2306 20.2936 19.4541 19.244 22.2147 
19.6787 19.1056 26.1176 19.8391 18.9657 28.0991 18.6813 17.8868 4.62767 
18.9256 18.1135 6.77958 19.9185 18.8763 32.2166 19.8375 18.9267 34.3526 
19.4259 19.2443 38.3569 19.0496 19.4381 42.2586 19.0029 19.3371 44.2907 
18.9541 19.1797 46.319 18.9323 18.9515 48.3411 18.8848 18.7049 50.3607 
18.7967 18.4555 52.3785 18.6449 18.1929 54.3907 18.1748 17.6478 58.1142 
18.5615 16.7432 59.3818 11.3412 22.2129 0.780967 10.4058 22.6628 59.2192 
11.2669 22.2581 59.3905 2.21965 24.6188 0.262146 2.21676 24.8201 0.555158 
9.30124 22.8546 0.0496195 9.8117 22.6412 0.15987 4.64265 25.0423 2.71241 
0.674369 24.8693 0.457053 8.37526 23.2169 0.190954 5.28331 24.3671 0.576875 
5.27921 24.4814 0.938013 5.24952 24.1928 0.274056 18.3415 16.5515 0.23205 
18.5087 16.8424 1.03231 18.4147 16.6811 0.540326 9.82544 22.6757 0.263376 
9.33612 22.9378 0.301277 14.3516 20.2274 0.443234 17.6854 21.0075 28.8204 
17.8456 20.8593 30.6725 17.9637 20.7284 32.5291 18.0815 20.5976 34.3857 
18.1711 20.4783 36.2447 18.0702 17.5118 1.43001 16.3763 19.0558 1.40052 
17.4776 17.8623 0.918727 3.66305 24.7043 0.603044 0.673943 24.703 0.234159 
16.287 18.9467 0.993842 16.2929 19.5622 57.1644 16.399 19.0197 58.5977 
15.2451 20.0563 58.4607 17.2742 18.0012 59.403 16.1689 18.9114 59.4007 
1.37217 24.4108 60.0323 5.38279 24.0559 60.0319 6.71211 23.6705 60.0321 
8.12834 23.2113 60.0318 10.9329 22.0077 60.0321 9.62913 22.6222 60.0321 
16.9087 17.8765 60.032 16.1939 18.5348 60.0321 14.7949 19.6601 60.0316 
18.1878 16.5309 60.0319 19.7531 14.4634 60.0325 20.7905 12.8411 60.0331 
20.4122 13.3603 60.033 19.1333 15.4163 60.0325 14.978 19.9137 59.3701 
12.7411 21.4628 59.2677 12.861 21.1125 59.7138 21.1073 13.3032 59.2818 
1.62946 24.7579 59.508 20.8315 13.6051 59.4844 21.2548 12.8964 59.6724 
11.1899 22.0638 59.8148 13.9701 20.6379 59.4348 16.1362 18.7915 59.7518 
18.421 16.6044 59.7441 14.8285 19.7848 59.6672 0.609082 24.7532 59.7957 
1.18816 24.895 59.1626 6.70698 23.786 59.7475 8.19675 23.3994 59.7353 
20.7094 13.5822 59.7259 19.3671 15.5938 59.5897 19.4876 15.5718 59.2438 
19.9576 14.6356 59.6471 19.7953 14.5736 59.8358 19.1782 15.5323 59.8243 
21.0844 12.7981 59.9107 20.5454 13.5189 59.9171 8.20166 23.6639 58.9651 
8.26399 23.4875 59.3552 20.2893 14.4391 59.2896 19.8651 14.8872 59.514 
3.51228 4.05563 -0.0300484 5.26842 5.06953 -0.0300909 7.02456 6.08344 -0.0301673 
1.69962 2.9764 -0.0299948 8.78069 7.09734 -0.0301984 10.5368 8.11124 -0.030299 
12.293 9.12514 -0.0304564 14.0715 10.1002 -0.0306082 1.6715 4.82523 -0.030023 
15.8629 11.0755 -0.0308095 1.6715 6.75531 -0.0300977 17.7962 11.9081 -0.031124 
1.6715 8.6854 -0.0301258 19.5432 13.003 -0.0317721 1.6715 10.6155 -0.0302321 
1.6715 12.5456 -0.0302818 1.65188 14.4757 -0.0303651 1.60765 16.4057 -0.0305027 
1.56165 18.3389 -0.0306893 18.5446 14.4794 -0.0317783 1.86576 20.4127 -0.0309421 
17.8631 15.4739 -0.0318954 1.58012 22.2542 -0.0313949 17.5065 16.323 -0.0317669 
1.24882 23.5616 -0.0319126 16.8037 16.7407 -0.0316227 16.2299 17.3724 -0.0314505 
15.8763 18.0483 -0.0315595 15.2438 18.3487 -0.0318771 2.89999 23.5888 -0.0318367 
14.736 18.8637 -0.0317663 13.9487 19.082 -0.0317621 3.94298 23.1135 -0.0320023 
12.9107 19.5647 -0.0318294 4.92456 23.2614 -0.0320008 11.7046 20.2047 -0.0317476 
5.77741 23.1843 -0.0317126 10.7815 21.0088 -0.0315992 10.2554 21.6569 -0.0322405 
6.56528 22.6195 -0.0317577 9.86648 21.9463 -0.0322908 7.77014 22.5181 -0.0319626 
9.27607 22.0593 -0.0322336 8.71379 22.5348 -0.0323035 3.42318 5.94063 -0.0300853 
5.21445 6.98494 -0.030137 7.0294 8.10287 -0.0301768 8.78554 9.11677 -0.0302866 
10.5417 10.1307 -0.0303842 12.2451 11.1501 -0.0304868 14.0103 12.0517 -0.0306356 
15.9522 13.0063 -0.030963 3.41665 7.81203 -0.030122 3.38818 9.65044 -0.0302026 
3.38818 11.5805 -0.030283 3.3783 13.5281 -0.0303344 3.32505 15.4795 -0.0304087 
3.22104 17.3338 -0.030591 3.0945 19.0126 -0.030775 16.9917 14.4277 -0.0313659 
3.14823 21.9644 -0.0310908 16.6869 15.6663 -0.0315167 15.6198 16.3049 -0.0313907 
15.1413 17.3375 -0.0316781 14.2178 17.9756 -0.0315549 12.977 17.9336 -0.0312659 
5.07886 22.013 -0.0315612 11.5361 18.5105 -0.031206 10.106 19.5259 -0.031309 
9.59829 21.1255 -0.0317729 6.92695 21.4126 -0.0314217 8.43914 21.6084 -0.0317723 
5.13715 8.91287 -0.0301902 6.93681 9.9894 -0.0302266 8.79038 11.1362 -0.0303637 
10.4695 12.3182 -0.0304645 12.1571 13.171 -0.0306596 15.3532 14.8533 -0.0311053 
5.12522 10.7549 -0.0302809 5.14843 12.7004 -0.0303524 5.00088 14.5943 -0.0304407 
4.89298 16.5222 -0.0305695 4.77762 18.466 -0.0307351 13.8698 16.1997 -0.031076 
11.8275 16.6112 -0.0308308 10.008 17.2611 -0.0308758 8.27677 20.3007 -0.0312914 
6.10695 19.8287 -0.030996 8.24459 18.3726 -0.0308595 6.95826 11.9535 -0.0303622 
8.69578 13.3399 -0.0304823 10.4953 14.7768 -0.0306852 6.91226 13.8545 -0.0304739 
6.38325 15.6453 -0.0305586 6.64059 17.5089 -0.0306729 8.29423 15.7856 -0.0306333 
12.4157 14.9612 -0.030806 4.02981 20.4381 -0.0309632 17.877 13.3531 -0.0313295 
13.8516 13.9683 -0.0308186 21.2488 13.7827 2.16665 21.5182 14.0617 3.89166 
21.834 14.1576 5.83298 22.0366 14.3969 7.934 22.2171 14.5555 10.0461 
22.3413 14.7378 12.044 22.4423 14.8857 13.9709 22.4988 15.1428 17.1969 
22.6028 15.1649 19.127 22.6681 15.1746 21.1043 22.7341 15.1784 23.0742 
22.7874 15.1603 25.0405 22.678 14.7187 15.6057 22.8397 15.1234 27.0178 
22.8957 15.085 29.0031 22.9316 15.0335 30.988 22.9572 14.9757 32.9538 
22.9842 14.9236 34.9345 22.9802 14.8743 36.948 22.9514 14.8303 38.9375 
22.8941 14.789 40.928 22.8209 14.7417 42.9174 22.6885 14.7028 44.9701 
22.5145 14.6443 47.0844 22.2946 14.6167 49.2147 22.0242 14.5966 51.2589 
21.7053 14.6033 53.1354 21.368 14.5336 55.1069 20.6812 15.0576 56.5483 
20.0469 15.3496 58.1034 21.3242 13.5539 58.1376 21.4767 13.8221 56.8191 
20.6229 14.3874 58.4223 0 4.97394 58.2328 0 3.01994 58.3775 
0 1.37081 58.6579 0 7.02808 58.2689 0 9.07283 58.2841 
0 1.63942 57.005 0 11.089 58.2842 0 1.81324 55.0731 
0 13.1052 58.2843 0 1.78854 53.0409 0 15.1214 58.2844 
0 1.75716 51.0249 0 17.1376 58.2845 0 1.7338 49.019 
0 19.1314 58.3304 0 1.7338 47.017 0 21.0967 58.4016 
0 1.7338 45.015 0 22.8431 58.6281 0 1.7338 43.013 
0 24.2043 58.9796 0 1.7338 41.011 0 1.7338 39.009 
0 1.7338 37.007 0 24.0115 57.6258 0 1.7338 35.005 
0 24.1121 55.9444 0 1.7338 33.003 0 24.3708 54.0286 
0 1.7338 31.001 0 24.6082 52.0883 0 1.7338 28.999 
0 24.8328 50.1323 0 1.7338 26.997 0 25.0516 48.1552 
0 1.7338 24.995 0 25.2267 46.1704 0 1.7338 22.993 
0 25.3664 44.1822 0 1.7338 20.991 0 25.47 42.1939 
0 1.7338 18.9889 0 25.5599 40.1934 0 1.7338 16.9869 
0 25.6234 38.2068 0 1.7338 14.9849 0 25.6705 36.1896 
0 1.7338 12.9829 0 25.7052 34.1933 0 1.7338 10.9809 
0 25.7218 32.1861 0 1.7696 8.96822 0 25.722 30.1867 
0 1.77108 6.95755 0 25.7095 28.1727 0 1.77163 4.92501 
0 25.6911 26.1618 0 1.6233 2.97659 0 25.6547 24.1693 
0 1.31154 1.30898 0 25.6035 22.1522 0 25.5489 20.1415 
0 25.4794 18.1453 0 4.79894 1.7522 0 25.3755 16.173 
0 6.74311 1.67466 0 25.2365 14.1761 0 8.68543 1.64136 
0 25.076 12.1884 0 10.6155 1.64131 0 24.8779 10.227 
0 12.5457 1.64119 0 24.6442 8.22469 0 14.4757 1.64108 
0 24.337 6.18716 0 16.4059 1.64099 0 23.9268 3.99948 
0 18.3744 1.69628 0 24.3074 1.97112 0 20.3044 1.70358 
0 22.001 1.45793 0 24.2798 0.716488 0 3.00149 1.63463 
0 23.3912 1.06123 0 5.9822 56.5247 0 3.73712 56.3156 
0 8.03164 56.5155 0 10.0635 56.5286 0 12.0972 56.5438 
0 3.58383 54.0518 0 14.1386 56.5152 0 3.56767 52.0359 
0 16.1691 56.4938 0 3.47964 50.0049 0 18.1778 56.5304 
0 3.4669 48.018 0 20.138 56.699 0 3.4669 46.016 
0 22.2561 56.7568 0 3.4669 44.014 0 3.4669 42.012 
0 3.4669 40.01 0 3.4669 38.008 0 3.4669 36.006 
0 3.4669 34.004 0 22.5991 54.7206 0 3.4669 32.002 
0 22.7569 52.8284 0 3.4669 30 0 22.9515 50.9249 
0 3.4669 27.998 0 23.2031 48.9749 0 3.4669 25.996 
0 23.411 47.0143 0 3.4669 23.994 0 23.566 45.0582 
0 3.4669 21.992 0 23.6881 43.0936 0 3.4669 19.9899 
0 23.7833 41.1158 0 3.4669 17.9879 0 23.867 39.145 
0 3.4669 15.9859 0 23.9062 37.1576 0 3.4669 13.9839 
0 23.9578 35.1615 0 3.4669 11.9819 0 23.9777 33.1753 
0 3.52843 9.96161 0 23.9902 31.1862 0 3.58368 7.94012 
0 23.9765 29.1905 0 3.49967 5.94293 0 23.9627 27.1832 
0 3.62687 3.70363 0 23.9448 25.1971 0 23.8884 23.2049 
0 23.8389 21.194 0 23.7845 19.2036 0 23.7108 17.2496 
0 5.74807 3.37586 0 23.5772 15.2948 0 7.70092 3.33568 
0 23.4329 13.3215 0 9.64671 3.3547 0 23.2483 11.3607 
0 11.5807 3.35796 0 23.0359 9.41191 0 13.5108 3.35778 
0 22.8335 7.46345 0 15.4408 3.35774 0 22.4229 5.48784 
0 17.4204 3.40869 0 21.7212 3.49663 0 19.4473 3.45517 
0 5.17264 54.929 0 7.00543 54.7018 0 9.02013 54.7714 
0 11.0734 54.7825 0 13.1381 54.7522 0 5.59467 53.0372 
0 15.2046 54.7075 0 5.21193 50.9253 0 17.3003 54.6559 
0 5.20431 48.9845 0 19.2258 54.7939 0 5.19999 47.017 
0 21.0321 55.2845 0 5.19999 45.015 0 5.19999 43.013 
0 5.19999 41.011 0 5.19999 39.009 0 5.19999 37.007 
0 5.19999 35.005 0 5.19999 33.003 0 20.9227 53.5647 
0 5.19999 31.001 0 20.9781 51.74 0 5.19999 28.999 
0 21.3283 49.7867 0 5.19999 26.997 0 21.6068 47.8299 
0 5.19999 24.995 0 21.7714 45.9044 0 5.19999 22.993 
0 21.9114 43.9741 0 5.19999 20.991 0 22.0058 42.0256 
0 5.19999 18.9889 0 22.1089 40.0576 0 5.19999 16.9869 
0 22.1612 38.1172 0 5.19999 14.9849 0 22.2022 36.1147 
0 5.19999 12.9829 0 22.2429 34.1512 0 5.25569 10.9739 
0 22.2576 32.1699 0 5.38008 8.95779 0 22.2535 30.2002 
0 5.56695 6.84891 0 22.2338 28.1988 0 5.01685 5.0011 
0 22.229 26.2057 0 22.1888 24.25 0 22.1261 22.2422 
0 22.0848 20.246 0 22.0206 18.3125 0 21.9181 16.3733 
0 6.71005 4.99262 0 21.7887 14.4337 0 8.66641 4.99666 
0 21.6122 12.48 0 10.5402 5.12689 0 21.4086 10.5318 
0 12.5035 5.08568 0 21.1762 8.56558 0 14.4464 5.07171 
0 21.207 6.80075 0 16.4037 5.08988 0 20.3802 5.24437 
0 18.4024 5.20768 0 7.87039 53.0379 0 9.98412 53.018 
0 12.0831 53.034 0 14.1784 52.9277 0 16.3449 52.8302 
0 6.97144 49.9162 0 18.7705 52.733 0 6.94473 47.9882 
0 6.951 46.0212 0 6.95227 44.031 0 6.93308 42.012 
0 6.93308 40.01 0 6.93308 38.008 0 6.93308 36.006 
0 6.93308 34.004 0 6.93308 32.002 0 6.93308 30 
0 19.3834 50.5856 0 6.93308 27.998 0 19.8079 48.6205 
0 6.93308 25.996 0 19.9672 46.7239 0 6.93308 23.994 
0 20.1177 44.8399 0 6.93308 21.992 0 20.2367 42.905 
0 6.93308 19.9899 0 20.3396 40.9606 0 6.93308 17.9879 
0 20.4113 39.0214 0 6.93308 15.9859 0 20.4485 37.0805 
0 6.93308 13.9839 0 20.5106 35.1012 0 6.99214 11.994 
0 20.528 33.1478 0 7.1082 10.0236 0 20.5393 31.1886 
0 7.36301 8.06953 0 20.5109 29.2166 0 20.5029 27.2064 
0 20.478 25.2567 0 20.4218 23.3003 0 20.3755 21.2799 
0 20.336 19.3518 0 20.2559 17.4328 0 20.1366 15.5165 
0 19.9923 13.5975 0 9.3392 7.01442 0 19.7934 11.6388 
0 11.5022 6.78702 0 19.5417 9.5988 0 13.4433 6.82036 
0 19.3315 7.24952 0 15.3398 6.74066 0 17.3307 6.82163 
0 6.78673 51.5651 0 8.86343 51.103 0 11.0447 51.3729 
0 13.0793 51.2067 0 15.1719 50.9951 0 17.2963 50.9341 
0 8.65526 49.0004 0 8.70939 47.0398 0 8.73292 45.0678 
0 8.69625 43.0651 0 8.66617 41.011 0 8.66617 39.009 
0 8.66617 37.007 0 8.66617 35.005 0 8.66617 33.003 
0 8.66617 31.001 0 8.66617 28.999 0 18.1427 49.3394 
0 8.66617 26.997 0 18.0962 47.5971 0 8.66617 24.995 
0 18.2888 45.6843 0 8.66617 22.993 0 18.4638 43.7788 
0 8.66617 20.991 0 18.5872 41.825 0 8.66617 18.9889 
0 18.6637 39.9002 0 8.64017 16.9732 0 18.7239 37.9647 
0 8.64705 14.9632 0 18.7892 36.0259 0 8.64355 13.0068 
0 18.8324 34.0973 0 8.82785 11.0267 0 18.8229 32.1583 
0 9.05206 9.15261 0 18.8105 30.2179 0 18.7696 28.2184 
0 18.7755 26.2683 0 18.7381 24.313 0 18.6954 22.3512 
0 18.6472 20.3861 0 18.5845 18.4733 0 18.4839 16.576 
0 18.3382 14.6749 0 18.1996 12.8132 0 10.6743 8.35547 
0 17.9478 10.8701 0 12.4412 8.60678 0 17.6778 8.89067 
0 14.4025 8.589 0 10.2013 49.8292 0 11.9687 49.5834 
0 13.8924 49.2344 0 16.1858 48.864 0 10.4053 48.0501 
0 10.5939 46.1651 0 10.5152 44.1605 0 10.3724 42.0877 
0 10.3498 40.0721 0 10.3554 38.0725 0 10.3784 36.0355 
0 10.3875 34.0094 0 10.392 31.9857 0 10.3732 29.9477 
0 10.3725 27.9556 0 10.3662 25.9464 0 16.3991 46.5823 
0 10.3537 23.9361 0 16.6677 44.5916 0 10.348 21.9487 
0 16.8494 42.6477 0 10.3379 19.9519 0 16.9348 40.7566 
0 10.3321 17.9506 0 16.996 38.806 0 10.3288 15.9272 
0 17.0408 36.8817 0 10.3911 13.8961 0 17.1445 35.0148 
0 10.2431 12.1259 0 17.1863 33.1219 0 11.0066 10.34 
0 17.1061 31.2381 0 17.0932 29.3147 0 17.0726 27.3214 
0 17.046 25.3688 0 17.0108 23.401 0 16.9641 21.429 
0 16.9152 19.5106 0 16.8358 17.6043 0 16.7223 15.679 
0 16.5015 13.773 0 16.6115 12.0721 0 15.8284 10.3767 
0 13.4156 10.5206 0 12.3538 47.5837 0 14.3456 47.1407 
0 12.5652 45.3412 0 12.0458 43.1432 0 12.0038 41.1631 
0 12.0272 39.1742 0 12.0501 37.1563 0 12.0859 35.0652 
0 12.1158 32.9688 0 12.0767 30.8765 0 12.0676 28.8467 
0 12.0614 26.8559 0 12.0481 24.8537 0 14.7716 45.2067 
0 12.0369 22.8686 0 15.1496 43.3482 0 12.0016 20.8635 
0 15.2477 41.5134 0 11.9738 18.8744 0 15.2996 39.5969 
0 11.9581 16.8794 0 15.322 37.6407 0 11.9455 14.8146 
0 15.3205 35.7291 0 12.1841 12.5048 0 15.7334 34.0469 
0 15.3966 32.3354 0 15.393 30.4397 0 15.3998 28.4533 
0 15.375 26.4659 0 15.3492 24.5336 0 15.3139 22.5455 
0 15.2752 20.5934 0 15.2215 18.6668 0 15.1439 16.7196 
0 15.0344 14.7032 0 14.6485 12.4712 0 13.625 43.8779 
0 13.6197 42.2093 0 13.6368 40.3585 0 13.6793 38.4027 
0 13.6984 36.3171 0 13.8985 34.0212 0 13.7488 31.7384 
0 13.735 29.6612 0 13.7421 27.6801 0 13.7077 25.6866 
0 13.6949 23.7133 0 13.6615 21.7304 0 13.6169 19.759 
0 13.5721 17.7963 0 13.5265 15.8491 0 13.4689 14.0149 
0 7.60694 6.3236 0 23.0495 2.46863 0 16.0719 8.25619 
4.33864 2.50492 1.77363 6.12264 3.53491 1.73937 2.62449 1.51526 1.62454 
7.90268 4.56261 1.72597 1.18232 0.682629 1.33158 9.65885 5.57653 1.72586 
11.415 6.59042 1.72575 1.42298 0.821574 2.99511 13.1711 7.60432 1.72567 
1.57495 0.909314 4.92816 14.9273 8.61826 1.72553 1.55178 0.895937 6.96029 
16.6678 9.62311 1.68151 1.52266 0.879123 8.9759 18.3936 10.6195 1.61626 
1.5015 0.866909 10.9809 19.9813 11.5362 1.33898 1.5015 0.866909 12.9829 
20.9999 12.1243 0.758897 1.5015 0.866909 14.9849 1.5015 0.866909 16.9869 
1.5015 0.866909 18.9889 20.9942 12.121 1.54067 1.5015 0.866909 20.991 
1.5015 0.866909 22.993 20.8927 12.0624 4.23573 1.5015 0.866909 24.995 
21.1294 12.199 6.08263 1.5015 0.866909 26.997 21.33 12.3148 7.9806 
1.5015 0.866909 28.999 21.5214 12.4254 9.89824 1.5015 0.866909 31.001 
21.7187 12.5393 11.8359 1.5015 0.866909 33.003 21.8714 12.6274 13.7812 
1.5015 0.866909 35.005 21.9878 12.6946 15.6989 1.5015 0.866909 37.007 
22.0823 12.7492 17.6687 1.5015 0.866909 39.009 22.1544 12.7908 19.5978 
1.5015 0.866909 41.011 22.2059 12.8206 21.5676 1.5015 0.866909 43.013 
22.2496 12.8458 23.5265 1.5015 0.866909 45.015 22.2775 12.8619 25.4809 
1.5015 0.866909 47.017 22.2966 12.8729 27.4536 1.5015 0.866909 49.019 
22.3087 12.8799 29.4124 1.5015 0.866909 51.021 22.3066 12.8787 31.3708 
1.51943 0.877259 53.0499 22.2973 12.8733 33.3437 1.55301 0.896648 55.0835 
22.2823 12.8646 35.3047 1.42539 0.822964 57.0263 22.2515 12.8469 37.2572 
1.18374 0.683449 58.6633 22.205 12.82 39.2177 22.143 12.7842 41.1691 
2.6142 1.50932 58.3961 22.0615 12.7372 43.1199 4.28963 2.47662 58.2227 
21.9558 12.6762 45.0589 6.04918 3.4925 58.2409 21.8211 12.5984 46.9961 
7.79383 4.49977 58.2689 21.6638 12.5075 48.946 9.52908 5.50161 58.2977 
21.4603 12.3901 50.9004 11.2617 6.50191 58.2978 21.221 12.2519 52.8679 
12.9942 7.50219 58.2979 20.9518 12.0965 54.8505 14.7268 8.50251 58.298 
20.8861 12.0585 56.6323 16.4704 9.50915 58.2525 21.1291 12.1989 58.1222 
18.2362 10.5286 58.1586 19.8909 11.484 58.357 20.7949 12.0059 2.69177 
20.9768 12.1109 59.1722 5.20711 3.00633 3.48573 3.25096 1.87695 3.6896 
6.9949 4.03851 3.50353 8.76301 5.05932 3.49207 10.537 6.08352 3.47226 
12.3148 7.10991 3.49885 14.0837 8.1312 3.51926 3.1127 1.79713 5.95332 
15.8366 9.14323 3.48242 3.0923 1.78535 7.96672 17.5312 10.1216 3.33297 
3.01552 1.74102 9.9985 3.00241 1.73345 11.9819 3.00241 1.73345 13.9839 
3.00241 1.73345 15.9859 3.00241 1.73345 17.9879 3.00241 1.73345 19.9899 
3.00241 1.73345 21.992 3.00241 1.73345 23.994 19.6014 11.3168 5.38383 
3.00241 1.73345 25.996 19.7538 11.4048 7.25056 3.00241 1.73345 27.998 
19.9144 11.4975 9.11961 3.00241 1.73345 30 20.1264 11.6199 11.0338 
3.00241 1.73345 32.002 20.301 11.7208 12.9505 3.00241 1.73345 34.004 
20.4342 11.7977 14.8636 3.00241 1.73345 36.006 20.5496 11.8643 16.7788 
3.00241 1.73345 38.008 20.6329 11.9124 18.7073 3.00241 1.73345 40.01 
20.6941 11.9477 20.6346 3.00241 1.73345 42.012 20.7465 11.978 22.5911 
3.00241 1.73345 44.014 20.7843 11.9998 24.5319 3.00241 1.73345 46.016 
20.7994 12.0085 26.4865 3.00241 1.73345 48.018 20.8213 12.0211 28.4452 
3.00241 1.73345 50.02 20.8264 12.0241 30.3895 3.03082 1.74985 52.0575 
20.8142 12.0171 32.3479 3.03054 1.7497 54.0873 20.8075 12.0131 34.309 
3.21654 1.85708 56.3112 20.7885 12.0022 36.2499 20.7463 11.9779 38.1906 
20.6964 11.949 40.1308 20.6252 11.9079 42.0621 20.5224 11.8486 43.9814 
5.17227 2.98622 56.4508 20.404 11.7802 45.8899 6.92031 3.99544 56.4536 
20.2677 11.7015 47.8124 8.67702 5.00967 56.5362 20.0699 11.5873 49.7389 
10.3954 6.0018 56.5654 19.8594 11.4658 51.6878 12.128 7.00209 56.5655 
19.5812 11.3052 53.7339 13.8387 7.98976 56.5955 19.294 11.1393 56.0436 
15.5505 8.97804 56.5848 17.3312 10.0062 56.4144 19.3601 11.1775 3.31646 
6.09143 3.51689 5.31595 4.49607 2.59581 5.08724 7.85822 4.53694 5.27127 
9.6319 5.56097 5.24487 11.4384 6.60395 5.26629 13.2442 7.64655 5.30628 
15.071 8.70123 5.35638 4.85333 2.80208 6.97371 16.7809 9.68844 5.20706 
4.51358 2.60593 9.07876 4.51446 2.60643 11.0277 4.50331 2.59999 12.9829 
4.50331 2.59999 14.9849 4.50331 2.59999 16.9869 4.50331 2.59999 18.9889 
4.50331 2.59999 20.991 4.50331 2.59999 22.993 4.50331 2.59999 24.995 
18.1717 10.4914 6.49414 4.50331 2.59999 26.997 18.2187 10.5185 8.30745 
4.50331 2.59999 28.999 18.5155 10.6899 10.2418 4.50331 2.59999 31.001 
18.7395 10.8192 12.155 4.50331 2.59999 33.003 18.8815 10.9012 14.0417 
4.50331 2.59999 35.005 19.0023 10.9709 15.9318 4.50331 2.59999 37.007 
19.0971 11.0257 17.8318 4.50331 2.59999 39.009 19.1781 11.0724 19.7338 
4.50331 2.59999 41.011 19.2402 11.1083 21.6657 4.50331 2.59999 43.013 
19.2769 11.1295 23.6001 4.50331 2.59999 45.015 19.3124 11.15 25.5244 
4.48963 2.59209 47.03 19.329 11.1596 27.4879 4.49469 2.59502 49.0422 
19.3491 11.1711 29.4225 4.52855 2.61456 51.0674 19.3391 11.1654 31.3564 
4.59546 2.65319 53.1064 19.3284 11.1592 33.3217 4.41922 2.55144 54.8783 
19.3093 11.1482 35.26 19.279 11.1307 37.1771 19.2332 11.1043 39.1096 
19.1659 11.0654 41.0149 19.0815 11.0167 42.918 18.9698 10.9522 44.8125 
6.06455 3.50137 54.4166 18.8365 10.8752 46.7061 7.87831 4.54854 54.7859 
18.6723 10.7804 48.5945 9.56049 5.51974 54.7879 18.4807 10.6698 50.4784 
11.2855 6.51569 54.7871 18.2713 10.5489 52.4119 12.9866 7.49778 54.8471 
17.9124 10.3417 54.4849 14.6123 8.43641 54.9445 16.2743 9.39596 54.8797 
18.2576 10.541 4.79837 6.82774 3.94199 6.98404 8.68285 5.01304 7.02069 
10.525 6.07661 6.98773 12.3574 7.13455 7.07887 14.2347 8.21838 7.17513 
16.326 9.42578 7.29884 6.03524 3.48445 10.1015 6.03868 3.48643 12.0276 
6.00661 3.46792 13.9873 6.00421 3.46653 15.9859 6.00421 3.46653 17.9879 
6.00421 3.46653 19.9899 6.00421 3.46653 21.992 6.00421 3.46653 23.994 
6.00421 3.46653 25.996 6.00421 3.46653 27.998 16.8385 9.72166 9.44415 
6.00421 3.46653 30 17.1887 9.92388 11.4058 6.00421 3.46653 32.002 
17.3146 9.99653 13.2411 6.00421 3.46653 34.004 17.4487 10.074 15.1023 
6.00421 3.46653 36.006 17.5591 10.1377 16.9761 6.00421 3.46653 38.008 
17.6483 10.1892 18.8648 6.00421 3.46653 40.01 17.7213 10.2314 20.7648 
6.00421 3.46653 42.012 17.7713 10.2602 22.6705 6.00526 3.46714 44.0488 
17.8093 10.2822 24.5988 6.00294 3.4658 46.0655 17.8372 10.2983 26.523 
5.94512 3.43242 48.0427 17.8516 10.3066 28.4757 6.00014 3.46418 50.0675 
17.8567 10.3095 30.3793 6.03891 3.48657 52.1339 17.8495 10.3054 32.3283 
17.8306 10.2945 34.2713 17.8029 10.2785 36.1821 17.764 10.256 38.0893 
17.7099 10.2248 39.9917 17.6341 10.181 41.8752 17.5397 10.1265 43.7529 
17.4198 10.0573 45.6247 17.2577 9.96372 47.4943 8.75148 5.05266 52.9483 
17.0523 9.84512 49.3478 10.4484 6.03236 52.9938 16.8799 9.74558 51.1575 
12.2488 7.07183 52.9901 16.7372 9.66322 52.9851 13.9238 8.03887 53.1702 
5.88255 3.39629 8.44983 7.3003 4.21483 53.1982 7.67481 4.43105 8.93525 
9.63421 5.5623 8.68146 11.4262 6.59692 8.79584 13.241 7.64468 8.9889 
15.0449 8.68618 9.08512 7.61485 4.39643 11.0939 7.56824 4.36952 13.0143 
7.4694 4.31246 15.0141 7.46504 4.30994 17.0053 7.48175 4.31959 18.9993 
7.50511 4.33308 20.991 7.50511 4.33308 22.993 7.50511 4.33308 24.995 
7.50511 4.33308 26.997 7.50511 4.33308 28.999 15.7671 9.1031 10.6835 
7.50511 4.33308 31.001 15.7186 9.07509 12.4165 7.50511 4.33308 33.003 
15.8771 9.16663 14.2831 7.50511 4.33308 35.005 16.008 9.2422 16.1488 
7.50511 4.33308 37.007 16.1108 9.30153 17.998 7.50511 4.33308 39.009 
16.2052 9.35605 19.8887 7.50511 4.33308 41.011 16.269 9.39286 21.7778 
7.49162 4.32529 43.059 16.3043 9.41326 23.6737 7.51083 4.33638 45.129 
16.3379 9.43266 25.5896 7.51177 4.33692 47.2039 16.3636 9.44752 27.5108 
7.25089 4.1863 49.0114 16.3567 9.4435 29.4329 7.73502 4.46581 50.9009 
16.3646 9.44808 31.3481 16.3509 9.44019 33.2805 16.3284 9.42717 35.1917 
16.2959 9.40842 37.093 16.2498 9.38177 38.9842 16.182 9.34264 40.8545 
16.0935 9.29159 42.713 15.9918 9.23285 44.5646 15.866 9.16021 46.4119 
15.6358 9.0273 48.2604 9.50654 5.4886 51.1324 15.3355 8.85392 50.0988 
11.3786 6.5694 51.2593 15.2497 8.8044 51.8243 13.4685 7.77601 51.0753 
9.00767 5.20058 10.2859 10.5374 6.08376 10.458 12.2105 7.04973 10.6631 
14.1089 8.14578 11.1042 9.27018 5.35213 12.0744 8.90714 5.14253 14.1022 
8.8966 5.13645 16.0368 8.9384 5.16058 18.0051 8.97804 5.18347 20.0029 
8.98732 5.18882 22.0265 8.98411 5.18697 24.0451 8.98692 5.18859 26.0487 
8.98736 5.18885 28.0494 8.99302 5.19211 30.0246 9.00602 5.19962 32.002 
14.2663 8.23665 13.371 9.00602 5.19962 34.004 14.462 8.34961 15.3444 
9.00602 5.19962 36.006 14.5726 8.41349 17.2047 8.97255 5.18029 37.9966 
14.74 8.51009 19.0353 8.96601 5.17652 39.9985 14.8077 8.54923 20.8918 
8.95809 5.17195 42.0282 14.7918 8.54004 22.749 8.96366 5.17516 44.1331 
14.836 8.56556 24.625 9.03132 5.21422 46.3734 14.8665 8.58316 26.5314 
8.93479 5.15849 48.8675 14.8799 8.59088 28.4468 14.884 8.59328 30.369 
14.8762 8.58877 32.2876 14.8586 8.57859 34.199 14.8216 8.55725 36.1099 
14.7859 8.53664 37.9964 14.7273 8.50276 39.8556 14.6467 8.45625 41.6911 
14.5485 8.39953 43.5357 14.5346 8.39155 45.343 14.3428 8.28077 47.1649 
13.9247 8.03941 48.977 10.508 6.0668 49.6134 12.1134 6.99365 49.34 
11.0708 6.39173 12.1575 12.684 7.3231 12.6009 10.2676 5.92796 15.1367 
10.3245 5.96085 16.9769 10.4204 6.01621 18.9874 10.467 6.04311 21.0639 
10.4505 6.03359 23.1408 10.461 6.03962 25.1417 10.4697 6.04465 27.1317 
10.4754 6.04795 29.1015 10.4785 6.04977 31.0684 10.4688 6.04418 33.0501 
12.9493 7.47625 14.5966 10.4639 6.04133 35.0163 13.0749 7.54876 16.5165 
10.4513 6.03407 36.9934 13.1543 7.59461 18.3678 10.4192 6.01553 38.9731 
13.5383 7.81635 20.011 10.4007 6.00481 40.9617 13.2804 7.66743 21.7269 
10.3773 5.99134 42.9991 13.3365 7.69979 23.555 10.3877 5.9973 45.1608 
13.3824 7.72628 25.4687 10.7346 6.1976 47.4799 13.4003 7.73663 27.4074 
13.4118 7.74331 29.3319 13.4068 7.74038 31.2709 13.395 7.73357 33.19 
13.3636 7.71547 35.114 13.3164 7.68821 37.0247 13.2842 7.6696 38.9105 
13.2377 7.64278 40.7964 13.1633 7.59982 42.6694 13.0595 7.53987 44.4367 
13.2856 7.67043 46.1019 12.6958 7.32992 47.6666 11.5038 6.64169 13.9591 
11.6528 6.72773 15.8421 11.7398 6.77796 17.8038 11.9419 6.89466 20.065 
11.8785 6.85806 22.3432 11.9064 6.87417 24.3261 11.9294 6.88745 26.2875 
11.9442 6.89599 28.2506 11.9521 6.90056 30.1849 11.9447 6.89627 32.1352 
11.9285 6.88691 34.0862 11.9109 6.87677 36.0328 11.8742 6.85553 37.9647 
11.8346 6.83271 39.9076 11.7956 6.8102 41.8473 11.7449 6.7809 43.8029 
10.2078 5.89349 13.4727 11.8284 6.82909 45.8993 15.3316 8.85169 53.5412 
9.25116 23.2309 0.92376 14.3513 21.3015 4.16782 14.8363 21.4946 6.7387 
15.0569 21.662 8.66224 15.2398 21.8157 10.5745 15.3587 21.9472 12.5212 
15.4524 22.0792 14.4306 15.5245 22.1779 16.3397 15.5662 22.2628 18.2753 
15.5775 22.3212 20.1668 15.5911 22.3821 22.0997 15.5879 22.4375 24.1244 
15.644 22.4229 26.3642 15.3409 22.6641 28.6694 15.0122 22.8834 30.526 
14.6658 23.0915 32.6977 14.4993 23.1957 34.873 14.4641 23.1689 37.026 
14.4003 23.1632 38.8766 14.3823 23.0844 40.7521 14.4128 22.9549 42.5982 
14.4607 22.8153 44.4395 14.4756 22.6483 46.2716 14.4694 22.459 48.0185 
14.3436 22.1849 50.9597 14.7341 22.1078 49.4972 14.1707 22.0511 52.6674 
13.9761 21.8053 54.7994 13.7196 21.5636 56.7094 15.1976 20.3647 2.68574 
16.3594 21.9498 27.6389 6.31076 24.2725 58.78 6.61128 24.6683 56.8591 
6.07201 25.0986 55.2852 6.164 25.3711 53.353 6.23854 25.6186 51.3845 
6.32536 25.8105 49.4083 6.42527 25.9917 47.3512 7.20588 25.9693 45.1957 
7.45654 26.0302 43.151 7.54401 26.0974 41.1864 7.63781 26.1423 39.2148 
7.74898 26.1636 37.2725 7.8234 26.1701 35.2869 7.7426 26.2352 33.1576 
8.10717 26.143 31.1148 5.61197 26.3339 45.6451 8.22013 26.1055 29.1589 
5.87238 26.3777 43.8962 7.79085 26.2405 27.1137 5.91523 26.4743 42.017 
7.96547 26.1525 25.0394 6.06741 26.5162 40.0331 8.06613 26.0808 23.2161 
6.08074 26.5755 38.1577 8.15718 26.0268 21.2628 6.27973 26.5611 36.2887 
8.19532 25.9402 19.3369 6.33665 26.5818 34.5025 8.19896 25.8489 17.3889 
6.13372 26.6714 32.967 8.17028 25.745 15.4437 6.6207 26.5685 31.5742 
8.09699 25.6147 13.5162 6.79834 26.5179 29.9348 8.01995 25.4721 11.577 
6.79936 26.5237 28.4216 7.95916 25.2869 9.64324 7.90096 25.0479 7.72421 
7.82836 24.7861 5.79451 7.73251 24.4768 3.87468 7.74054 24.1022 2.17267 
6.92033 24.119 1.22838 5.18769 24.629 58.4973 5.18609 24.9501 57.161 
2.37668 25.062 58.2682 1.35848 25.4171 57.1898 2.11701 25.9315 53.926 
2.09187 26.2165 51.9548 2.09617 26.4524 49.9813 2.1134 26.6424 48.0036 
2.13893 26.8144 46.0287 2.16771 26.9406 44.051 2.19857 27.0384 42.0724 
2.24463 27.126 40.0802 2.26227 27.176 38.0758 2.32762 27.22 35.9441 
3.13213 27.1496 33.8663 3.41333 27.1299 31.9499 1.44247 27.3156 34.1251 
1.68099 27.3011 32.2541 2.07212 27.3021 29.6851 1.88015 27.3041 27.8324 
1.80393 27.3122 26.0706 1.65915 27.3116 24.066 1.58786 27.2636 22.0238 
1.53041 27.2116 19.9977 1.48017 27.1415 17.9577 1.45326 27.034 15.9063 
1.44274 26.8895 13.8816 1.43854 26.7311 11.8508 1.44565 26.5168 9.82166 
1.46409 26.2708 7.80153 1.49637 25.9732 5.7333 1.53782 25.5825 3.55293 
2.16405 25.1665 1.81709 0.893139 25.348 2.23707 2.46572 25.6029 55.7325 
3.22717 25.2153 57.336 19.8609 16.7087 5.52253 19.6629 15.9991 2.33298 
20.105 16.937 7.89375 20.2231 17.2115 10.0767 20.272 17.4594 12.0548 
20.3475 17.6341 14.1531 20.2714 17.9588 16.5052 20.4572 17.9304 18.8847 
20.5121 17.9842 20.997 20.5952 17.9694 22.9552 20.6976 17.8936 24.8749 
20.8249 17.7842 26.8634 20.9582 17.6716 28.8534 21.0275 17.5851 30.982 
21.0085 17.5751 32.9987 21.0115 17.5281 35.0577 21.184 17.2794 36.7236 
20.8127 17.6322 38.5406 20.5742 17.7623 40.7947 20.5363 17.6546 42.8917 
20.452 17.5813 44.9672 20.3227 17.4733 47.1005 20.1722 17.3638 49.1498 
20.0178 17.2364 51.1123 19.7204 17.1832 53.3188 19.4194 17.0045 55.5918 
18.787 16.9772 58.0481 19.9946 18.52 39.463 18.9582 16.4472 59.0028 
10.3265 23.1451 2.33708 11.3475 23.4679 6.45528 11.6964 22.5448 2.61723 
11.9923 22.1292 1.58788 11.4729 23.6761 8.28973 11.6163 23.8494 10.1733 
11.737 24.0034 12.0736 11.8398 24.1311 13.9811 10.9735 22.6357 1.59828 
11.9194 24.2438 15.8903 11.9437 24.3393 17.8028 11.9452 24.4287 19.7208 
11.9343 24.5107 21.6634 11.8176 24.597 23.6115 11.6437 24.7138 25.6812 
11.5429 24.8053 27.7555 11.4424 24.8737 29.8208 11.3203 24.9359 31.8001 
11.0848 25.008 35.0248 11.0281 25.0002 37.0416 10.9285 24.9997 39.079 
10.8889 24.9296 41.1503 10.8194 24.8514 43.0661 10.7607 24.756 45.0301 
10.684 24.6124 47.0055 10.5769 24.4305 49.0727 11.3333 23.9078 50.6894 
11.0854 23.7885 52.3719 10.8687 25.128 33.3926 10.9662 23.5333 54.328 
10.6942 23.2467 56.3748 10.8397 22.7893 58.0722 11.1686 22.4525 58.8179 
9.90726 23.2844 57.6878 9.82112 24.4904 51.2054 9.10971 23.8144 56.8979 
9.54546 24.3293 53.2478 9.42631 24.0316 55.2115 11.5687 23.0923 4.97444 
4.7818 26.9785 26.0764 4.89412 26.9205 23.853 4.78333 26.8817 21.5877 
4.75002 26.8085 19.4884 4.70141 26.7341 17.5012 4.65592 26.613 15.5158 
4.62392 26.4662 13.5228 4.62568 26.3017 11.5398 4.61696 26.1045 9.55041 
4.62403 25.8563 7.56459 4.61254 25.5742 5.63176 4.61293 25.2783 3.90047 
4.75112 27.0031 28.0743 19.4 15.6158 0.742666 19.014 16.133 0.871828 
10.534 22.4279 0.437375 13.4177 20.98 0.648138 17.5412 19.0903 5.30571 
17.6386 18.0682 1.90656 17.7594 19.3928 7.83484 17.9752 19.5744 10.0946 
18.0896 19.8644 13.1886 18.1281 20.0173 14.9134 18.2301 20.166 17.9456 
18.3042 20.1945 19.8157 18.3637 20.2178 21.7223 18.4205 20.2363 23.6352 
18.5118 20.1951 25.6279 18.6539 20.0718 27.4963 18.7924 19.9559 29.4055 
18.9075 19.8451 31.3199 18.9263 19.8029 33.3059 18.2575 19.5373 11.6985 
17.9868 20.2856 16.4352 18.9425 19.76 35.2904 18.8912 19.7816 37.0871 
4.19766 24.8302 1.56564 5.36465 24.6855 1.83534 20.3113 14.4153 0.658689 
16.9009 19.4046 55.65 17.4942 18.0697 58.6436 15.4636 20.0995 57.7113 
17.2351 19.6324 53.3333 17.4446 19.8136 51.2435 17.5392 20.002 49.5029 
17.6022 20.2133 47.5195 17.5848 20.4379 45.6061 17.6312 20.5362 43.706 
17.5771 20.7023 41.755 17.2763 21.0939 39.5485 17.1472 21.2857 37.2975 
17.1367 21.3316 35.5912 15.9871 19.224 58.9081 19.337 13.819 60.0321 
19.9444 13.0264 60.0322 19.0292 14.6576 60.0324 18.3515 15.098 60.0322 
18.8123 12.6202 60.0315 17.901 15.747 60.0321 17.2794 11.7523 60.031 
17.1898 16.1674 60.0318 15.6414 10.9198 60.0308 16.7203 16.9344 60.0319 
13.8841 9.96175 60.0306 15.8816 17.4603 60.0318 12.1471 8.96921 60.0305 
15.3481 18.299 60.0318 10.3953 8.00229 60.0303 14.5587 18.6688 60.0318 
8.66276 7.00201 60.0302 14.0186 19.3008 60.0318 6.93021 6.00173 60.0302 
13.1791 19.6519 60.0317 5.19766 5.00144 60.0301 12.2187 20.2893 60.0318 
3.46511 4.00116 60.0301 1.74155 3.01127 60.03 10.4564 21.2941 60.0319 
9.7451 21.7764 60.0319 8.95721 21.8595 60.0317 1.74606 5.04045 60.03 
8.12805 22.2027 60.0318 1.74606 7.05662 60.0301 7.48674 22.6682 60.0319 
1.74606 9.07279 60.0301 6.70397 22.837 60.032 1.74606 11.089 60.0302 
1.74606 13.1051 60.0303 1.7064 15.1213 60.0304 4.93418 23.1916 60.0317 
1.64606 17.1375 60.0306 3.73359 23.2384 60.0316 1.6595 19.1657 60.0307 
2.37115 23.3813 60.0318 1.48793 21.0358 60.031 1.28196 23.7765 60.032 
18.2953 14.0543 60.0317 17.1691 14.9473 60.0315 15.5921 12.6845 60.0309 
13.952 11.9279 60.0307 15.8332 15.9943 60.0315 12.1705 10.9446 60.0305 
14.4491 17.2979 60.0314 10.434 10.0026 60.0304 8.66286 9.00241 60.0303 
13.4106 18.4465 60.0315 6.93031 8.00213 60.0302 5.19776 7.00185 60.0302 
12.097 18.9856 60.0315 3.48525 6.01901 60.0301 10.9705 20.0964 60.0316 
9.43555 20.6958 60.0316 8.15514 20.9879 60.0314 7.05489 21.693 60.0315 
3.4865 8.06471 60.0301 3.4865 10.0809 60.0302 3.4865 12.0971 60.0303 
5.73961 22.3301 60.0316 3.46653 14.1475 60.0304 3.41636 16.1815 60.0305 
4.3496 22.02 60.0314 3.2825 18.1971 60.0307 2.76595 22.072 60.0314 
3.41227 20.355 60.031 13.9208 13.7547 60.0308 12.2155 12.9685 60.0306 
10.4824 11.9848 60.0305 12.3806 17.1088 60.0311 8.68809 11.026 60.0304 
6.93041 10.0025 60.0303 5.22825 9.02868 60.0302 10.3168 18.5419 60.031 
8.4099 19.2512 60.031 6.84715 20.0352 60.0311 5.40549 20.9196 60.0311 
5.22694 11.089 60.0303 5.23459 13.1394 60.0303 5.1909 15.2076 60.0305 
5.125 17.2059 60.0306 5.14039 19.1471 60.0309 12.2449 14.9582 60.0308 
10.4959 13.9797 60.0306 8.76056 13.0488 60.0305 10.4982 16.2039 60.0307 
6.97781 12.0496 60.0304 6.86464 18.1826 60.0309 6.97987 14.2108 60.0305 
6.93032 16.1962 60.0306 8.68149 17.2054 60.0307 8.72247 15.1643 60.0306 
14.025 15.6023 60.031 1.24636 22.6081 60.0315 15.6219 14.4 60.031 
17.1774 13.3922 60.0312 5.89624 23.3234 60.0321 11.3784 21.1106 60.0317 
13.9818 20.7885 58.9588 0.768289 24.9121 59.2754 19.4324 14.4098 59.319 
18.9754 15.0827 59.3555 19.7566 13.6463 59.0054 19.512 14.3035 58.0151 
18.1787 15.8554 59.2855 18.4554 15.3757 57.7954 20.3092 13.3389 57.9839 
18.1212 14.6585 58.9773 16.9976 16.4841 58.3674 17.6152 16.2167 56.6489 
18.5457 14.5115 56.5955 18.3674 13.2047 58.5566 16.6804 14.2625 58.4975 
16.7524 16.9869 55.0385 18.68 15.3098 54.3966 20.0432 13.7229 56.1215 
16.5958 12.5337 58.184 19.2718 12.7402 57.2432 15.1694 15.3412 58.3837 
15.0408 13.6037 58.3702 15.4479 16.9489 58.4927 16.2403 18.0003 59.1305 
15.8314 17.7264 56.5922 17.0411 17.4038 53.1027 15.1162 18.4587 54.1583 
18.9498 15.6831 51.9928 20.0002 14.4824 52.7573 14.8851 11.622 58.5598 
17.4576 12.0709 56.7048 14.4605 9.87829 58.7144 18.0508 12.455 54.7415 
13.3514 12.8692 58.3552 13.3966 14.7495 58.3076 13.866 17.2284 58.0419 
14.8547 18.338 58.8373 17.9231 17.0182 51.0929 15.6955 18.7854 51.9217 
14.2103 19.6626 55.4229 13.5333 19.3551 57.0368 20.1307 14.2303 51.1183 
18.6318 15.039 50.1744 20.2369 13.5742 54.0506 13.3356 10.9448 58.401 
15.6279 10.7517 57.0053 16.3151 11.3764 55.2559 13.2973 8.97784 58.4096 
18.5119 12.8552 52.6573 16.8007 11.644 53.2968 11.6549 13.9603 58.3129 
11.7269 16.1191 58.0659 11.6491 18.5278 58.0413 13.1309 18.9814 58.9585 
14.5189 19.421 58.7545 17.3254 17.9925 49.2303 15.9072 19.0567 50.1377 
12.4479 20.4276 55.9431 20.3263 14.1618 49.1603 18.3914 16.8541 48.0476 
19.2078 15.3208 47.8542 13.3173 10.1746 56.8776 14.4749 10.3733 55.4872 
15.1718 10.9761 53.9335 11.5569 7.99124 58.4023 18.6648 12.7002 50.6549 
17.047 11.7545 51.3482 15.4153 10.8891 51.9963 9.56884 12.2512 58.0763 
9.94249 15.0321 58.2841 9.8896 17.2708 57.7982 10.0883 20.1896 58.4898 
17.3797 18.1695 47.2369 16.0629 19.2457 48.3884 13.0926 21.2593 49.5704 
10.3527 21.8459 52.9837 11.3131 21.23 57.5061 12.3794 20.3019 58.5464 
20.5792 14.1525 46.8612 19.5149 15.6544 45.8957 18.4145 17.0091 45.9838 
9.76903 9.41143 58.3029 12.1757 8.90327 57.1529 12.9366 9.34642 55.4937 
13.7111 9.95281 53.7527 9.81786 7.00204 58.3963 18.85 12.7717 48.7133 
16.8472 11.9063 49.3306 15.5575 10.9624 50.1969 13.3913 10.2261 50.752 
7.53161 11.0212 58.3527 8.04289 13.7242 58.3348 8.12869 16.0659 58.1321 
8.30605 18.5861 58.0165 11.4911 21.0511 59.1209 9.29465 21.6192 59.0579 
13.5496 19.9098 59.119 17.2795 18.362 45.2692 16.0222 19.3605 46.5103 
11.0841 21.8793 48.8367 9.43563 22.8108 51.8386 9.2475 21.9256 56.5821 
9.62557 22.9026 49.8735 21.0624 14.1323 44.4682 19.689 15.5401 43.7499 
18.3213 16.984 43.8859 8.08535 8.00225 58.3947 10.4436 7.91898 57.1429 
11.2882 8.4719 55.4075 12.1658 9.09117 53.6969 7.51444 5.86637 58.7082 
17.442 11.9421 47.5965 19.0152 12.8678 46.8019 15.7616 10.9289 48.1002 
11.4453 8.73258 51.7749 11.9343 9.15255 49.5924 5.66901 12.1296 57.6722 
6.17784 9.38422 58.5776 6.40394 15.0813 58.2106 6.30682 17.1951 58.3805 
6.28752 19.0818 58.2552 8.57482 22.5279 59.2796 14.6837 20.3541 45.9281 
10.5916 22.2825 46.2986 9.16141 23.4185 48.0919 7.61012 22.4081 56.885 
10.4061 21.8591 59.0921 19.8253 15.6524 41.6773 18.4624 17.1448 41.8265 
6.35279 7.00194 58.395 8.71468 6.9232 57.1331 9.58566 7.44683 55.3801 
10.4634 8.03434 53.5948 5.85716 4.99994 58.5581 17.6001 12.021 45.7131 
16.0463 11.1034 46.5071 19.1435 12.9429 44.894 14.2531 10.3099 47.8267 
12.9765 9.0825 48.0446 10.3985 8.18072 50.0914 10.4699 8.53023 47.9659 
9.55906 7.56026 51.8004 3.91606 11.0714 58.3974 4.57876 14.2424 57.8831 
4.57599 16.1974 58.3538 4.53216 18.0499 58.3504 4.64987 20.1662 58.3838 
7.60196 22.5122 59.0853 6.2003 21.6991 58.5108 17.2555 18.4734 41.2185 
14.633 20.5284 44.1648 11.1872 22.482 44.6379 9.07833 23.082 45.8473 
7.11582 23.5928 46.8832 6.62718 23.571 52.1448 6.02252 23.0445 56.3036 
6.84359 23.1741 58.1988 20.8962 14.3152 40.6097 18.3431 17.0429 39.4344 
19.9522 16.0191 39.5967 4.17851 6.89253 58.3319 7.65358 6.50809 55.4962 
6.2255 6.14669 57.1926 8.73434 7.02085 53.597 3.95793 4.74483 57.8309 
17.7195 12.0952 43.8276 16.3658 11.2196 44.7281 14.7735 10.4205 45.4424 
11.842 8.4046 47.0117 8.70684 7.17641 49.9036 7.93133 7.25433 47.7761 
7.43794 6.58695 51.7521 1.77608 9.96928 58.5703 2.00446 8.02542 58.3794 
2.79157 19.2565 58.3644 2.54832 21.1691 58.4882 4.96687 22.2939 58.867 
3.61771 22.4741 58.682 15.8045 19.8731 40.7638 17.6013 18.4923 38.8557 
14.5391 20.7107 42.3662 10.8676 22.4367 42.7995 7.83608 23.8884 45.1214 
4.96819 23.3755 57.8548 5.21681 5.08672 55.813 2.70781 2.93971 58.427 
16.0549 11.6873 42.9562 14.496 10.5633 43.6503 19.793 12.9096 40.9268 
7.13058 6.26184 49.3631 8.06209 7.10758 45.3386 9.55702 7.61942 44.0886 
1.38232 14.0263 58.593 1.3294 11.5355 58.7013 1.41229 16.16 58.8055 
1.33104 18.703 58.7031 1.0547 20.1216 58.3955 2.04777 22.6328 58.5949 
4.28225 23.6466 59.0162 3.11228 23.7223 58.6919 14.5274 20.8931 40.5329 
15.8351 19.8978 38.2255 17.0622 19.3387 37.2831 11.2889 22.7527 40.8411 
9.48463 23.4575 41.6898 6.44557 24.4995 43.977 2.68399 24.5601 48.7399 
2.68369 25.0254 46.8199 4.07541 23.6903 55.755 21.3452 14.5249 36.3052 
19.946 15.2738 35.9752 1.2935 4.0828 58.3489 4.06096 5.25598 54.2735 
16.3336 11.6106 40.9188 17.8884 12.202 40.0387 14.8366 10.4145 41.7527 
13.3087 9.54938 42.6222 19.4238 13.0654 39.1436 10.9824 8.83401 43.183 
6.0938 5.48616 46.9202 7.07528 7.076 43.4649 5.78309 5.61509 44.5399 
3.62153 4.87646 50.0393 1.7879 24.0999 59.1163 15.875 20.2042 36.3731 
17.6599 18.8069 36.2317 9.62886 23.3185 40.0798 8.14186 24.1313 41.2127 
6.59111 24.2356 42.4436 4.98752 24.9927 42.8454 3.27407 25.5045 44.0916 
1.66483 24.3212 55.2951 2.59535 23.6603 57.312 21.0767 14.6721 34.5537 
2.65576 3.5666 55.0893 1.59693 2.58137 56.9282 14.9296 10.4442 39.8981 
16.4462 11.3312 39.0217 17.9579 12.2176 38.1253 19.4563 13.1119 37.2058 
11.7116 8.73587 41.0437 4.11656 4.39909 48.0848 4.08591 4.41517 46.0659 
4.02348 4.463 44.1054 2.69185 3.46806 51.0483 2.68262 3.43611 49.0267 
1.65605 11.0833 57.1188 1.6077 8.57139 57.1863 1.68571 19.1415 57.1938 
1.5038 21.2426 57.2411 16.0931 19.9194 34.646 14.6398 20.9579 35.2113 
12.9154 21.9315 35.9488 11.1499 22.2577 36.4694 9.68138 23.3471 37.8996 
5.09791 25.0429 40.932 3.49541 25.2526 41.8701 20.4659 15.5616 32.6773 
1.18806 2.60088 52.0428 14.9847 10.4816 38.0245 16.5023 11.6263 37.3013 
17.9984 12.2357 36.2064 19.834 12.9672 35.431 11.543 8.48419 38.9276 
2.68296 3.43162 47.0213 2.6851 3.43844 45.015 3.67188 4.79824 41.9668 
6.83094 6.18353 40.333 10.1173 7.68322 37.977 2.72432 3.64325 43.1609 
1.18265 2.57457 50.02 1.18464 2.57114 48.018 2.54291 14.4356 55.4657 
2.00134 16.4468 55.4578 1.58748 11.8747 55.3187 1.75557 9.76722 55.4678 
1.86819 8.07645 55.394 2.00734 18.1973 55.1841 1.75971 20.1154 55.5952 
1.65581 21.9791 55.6104 15.7207 20.086 32.7577 11.3578 22.7693 34.5625 
7.96856 23.9196 37.5699 6.66193 24.757 37.9559 5.14563 25.1203 39.0136 
1.94468 24.4734 45.0287 1.72144 23.2541 53.8539 1.63202 24.8415 43.1566 
21.518 14.1012 32.7543 20.4503 15.6656 30.743 17.483 18.9203 30.3731 
1.52954 2.94508 53.4869 14.8009 10.5065 35.8743 12.8824 10.0636 36.4524 
16.4111 11.3575 35.3087 18.0216 12.255 34.2843 19.4301 13.6719 33.4906 
11.4077 8.71893 37.0309 1.18455 2.57129 46.016 1.18465 2.57112 44.014 
4.18648 4.30415 40.01 2.64899 3.56423 41.3004 5.6875 5.1705 39.009 
7.18346 6.01983 38.0042 10.1425 7.7023 36.0142 1.18465 2.57112 42.012 
2.03815 13.2056 53.7965 1.92395 15.4854 53.7211 1.60595 17.6489 53.2386 
1.81704 11.1075 53.5153 1.69895 8.95821 53.6091 1.75774 6.81637 53.5874 
1.70613 4.82643 53.8293 1.8782 19.6957 53.713 15.144 20.3958 30.8302 
11.3924 22.6496 32.6945 9.65057 23.5888 34.1884 6.89429 24.8141 36.0962 
5.23862 25.1785 37.1362 3.61094 25.1284 37.9545 1.68826 22.7379 47.9352 
1.72701 22.4938 49.8863 2.43647 22.6786 45.8587 1.85879 21.6121 52.7124 
1.63467 24.9378 41.1677 1.62459 23.1591 42.0784 21.2276 14.5792 29.9674 
19.9619 15.4998 28.5798 19.3232 17.1009 27.9613 18.2796 18.2628 27.5144 
13.5539 9.65917 35.141 16.5419 11.4021 33.2933 18.0346 12.27 32.3355 
19.5232 13.127 31.3646 11.7026 8.41574 34.9391 1.68497 2.85994 39.009 
4.05352 4.41043 38.0232 5.68753 5.17044 37.007 8.59719 7.10571 34.9104 
10.4305 7.48843 33.9248 1.70753 12.0724 51.8707 1.90085 19.6068 51.6641 
1.95134 9.806 51.8219 1.47601 7.69899 51.3942 13.4434 21.5605 29.4946 
11.3666 22.2757 30.4511 9.61291 23.4927 32.082 8.42375 24.3104 33.2793 
6.83936 25.1613 34.339 1.52133 20.996 44.93 1.61876 23.2531 40.1061 
1.7217 21.523 41.0459 21.1458 14.6536 28.0146 20.3115 15.8962 26.7596 
19.1759 17.2107 25.9725 16.9605 19.5934 27.2404 18.1248 18.3238 25.262 
13.1959 9.71327 33.5027 16.2184 11.5781 31.2348 18.0482 12.2679 30.3861 
19.5328 13.1236 29.4191 1.68497 2.85994 37.007 3.48059 4.21795 36.0966 
5.68739 5.17069 35.005 7.18887 6.03622 34.004 1.86082 13.1666 50.0517 
1.77368 11.0798 50.269 1.82397 15.0715 49.2796 1.85839 17.2065 49.7143 
1.66605 4.62694 49.9625 11.8466 22.4088 28.1544 13.7141 21.3712 27.4376 
9.94997 23.3909 28.7117 8.06462 24.3027 30.184 7.30791 24.6258 32.1559 
15.7598 20.1318 26.108 1.96279 25.4811 34.8103 1.64382 25.0667 37.1847 
1.62671 23.3115 38.1399 1.60483 19.606 43.8412 2.31073 19.5491 42.0794 
1.61179 21.5605 39.0654 1.6061 19.8049 39.9607 21.1153 14.5141 25.9527 
20.224 15.7818 24.6549 19.0432 17.312 24.0124 16.969 19.2083 24.7246 
18.0281 18.373 23.2842 1.62595 4.62373 48.0065 15.0196 10.4863 30.3984 
13.5764 9.71308 31.3114 16.4321 11.1777 29.4342 18.043 12.2652 28.4621 
19.5132 13.1212 27.4732 1.68497 2.85994 35.005 4.18648 4.30415 34.004 
5.68739 5.17069 33.003 1.63497 4.62229 46.016 1.63576 4.62229 44.014 
2.03456 13.5745 47.8728 2.2768 16.3885 47.8232 1.96368 7.31216 49.0293 
12.0079 22.3026 25.9987 13.8302 21.2437 25.1964 8.0196 24.4002 27.5997 
6.31063 25.0506 29.4102 15.7312 20.113 24.1416 2.14721 23.4867 36.2037 
1.63024 21.604 37.1042 1.45628 17.8924 44.8373 1.81779 17.8553 42.9058 
1.62501 19.8599 38.0243 21.0207 13.9959 24.1771 19.0215 17.2451 22.0568 
16.9106 19.239 22.7853 17.7755 18.0448 20.8778 1.89419 6.40615 46.9602 
15.057 10.5612 28.4648 13.5674 9.73539 29.3895 16.5488 11.4065 27.5032 
18.0224 12.2616 26.5118 19.4962 13.1094 25.5143 11.6247 8.58874 29.2517 
1.21721 4.54778 42.3259 1.63426 4.62229 40.01 2.72106 3.35768 32.9741 
3.87623 4.53781 32.1709 7.29705 6.14949 29.7613 10.0753 7.79338 27.8489 
1.63426 4.62229 38.008 1.92035 6.77064 44.8678 1.7333 6.32719 43.0072 
1.78332 13.8688 45.8845 2.38132 16.5706 45.8765 12.2402 22.2441 23.8787 
8.3949 23.9449 25.3988 13.8957 21.2551 23.075 6.3134 24.9162 27.5975 
15.4501 20.0912 22.1185 1.98429 23.4978 34.3268 1.59782 21.614 35.0533 
1.60684 19.9161 36.0692 1.63587 18.1854 36.9584 1.66515 16.452 37.7895 
19.9615 15.9954 20.8437 18.6541 17.0298 19.9282 16.8625 19.2339 20.8783 
16.5291 11.3884 25.5704 18.0008 12.2375 24.5744 19.4674 13.0912 23.5744 
11.4657 8.91816 27.138 2.08892 6.23274 41.088 1.63426 6.35538 39.009 
1.1794 2.69151 32.0296 1.4202 4.8538 35.9196 2.68558 3.43761 31.001 
4.02101 4.5725 30.2214 5.66406 5.69248 29.1628 7.18496 6.02863 28.0151 
10.4306 7.59455 25.9139 2.10114 6.36055 37.1064 1.53914 8.05922 42.2619 
1.67576 12.7188 44.068 12.3194 22.1716 21.9481 10.2457 23.1419 22.6535 
8.63005 23.9867 23.5343 6.79127 24.6641 24.0658 13.9352 21.2254 21.1393 
4.78334 25.3848 27.362 4.87639 25.2107 25.1246 1.60584 25.3045 29.391 
1.96828 23.3206 31.9947 1.60612 21.7631 33.0478 1.59643 19.957 34.1154 
1.57944 18.2554 35.046 1.61101 14.7273 40.5052 1.65159 14.7711 38.5759 
1.65751 16.5017 35.8758 1.72112 14.7899 36.631 20.8976 14.4061 20.0502 
19.7608 15.7194 18.8871 18.5964 16.8492 17.5496 17.7176 18.2604 17.422 
15.01 10.5495 24.6307 13.5232 9.7427 25.5525 16.4466 11.1361 23.5968 
11.6055 8.69784 25.2507 1.6348 8.08847 40.01 1.63342 8.08847 38.008 
1.95676 4.79511 34.1719 1.78272 2.56196 30.2739 2.73587 3.95066 29.0261 
4.04805 4.34291 27.8251 5.6874 5.17067 26.997 7.18492 6.02836 26.0135 
8.66643 7.31725 24.9935 1.73089 8.05637 36.1622 1.71815 9.8721 43.1704 
1.65102 9.80714 41.1926 12.0298 22.0461 20.1391 10.283 23.1293 20.7017 
8.59085 23.7766 21.6134 6.99074 24.6249 22.2376 5.50616 24.9917 23.1937 
13.9526 21.1643 19.2288 3.90401 25.2801 22.9773 1.83082 23.5968 30.0762 
1.61681 21.6835 31.1862 1.57519 18.2805 33.1258 1.92139 16.5823 34.0541 
1.62301 13.1184 39.3311 1.67692 13.1575 37.3415 1.69534 14.9837 34.6254 
1.7426 13.2371 35.1497 20.6964 14.6288 18.1591 19.7828 15.6931 16.6163 
18.5812 17.3213 15.4199 16.0924 18.5155 17.6824 17.3943 18.6821 16.0124 
14.9899 10.5359 22.7288 16.398 11.3929 21.7047 17.9737 12.3325 21.4977 
19.3975 13.0813 19.7202 1.75398 9.88966 39.1284 1.8901 9.79211 37.2503 
1.51748 4.64396 32.0912 2.12098 6.0544 32.9095 1.32735 2.82487 28.2719 
2.59555 3.36393 26.9656 4.18648 4.30415 25.996 5.68743 5.17061 24.995 
7.18443 6.02706 24.011 8.65837 6.88247 23.0708 9.71625 8.01188 21.8237 
2.18854 9.89086 35.4574 2.07837 11.4253 40.2092 12.3752 21.9786 18.1163 
10.2693 23.0207 18.7722 8.45103 23.5809 19.692 7.01127 24.1368 20.4945 
5.54769 24.8383 21.2859 13.9442 21.0862 17.3563 3.33248 24.4646 20.8462 
15.6382 20.0467 16.5018 1.20019 25.3917 27.0975 1.51314 23.5635 28.1962 
1.63289 21.666 29.2052 1.63287 18.2463 31.2044 1.68202 16.567 32.2318 
1.62544 11.4776 38.1343 1.857 11.6869 36.1407 2.27902 11.7088 33.972 
20.7072 13.891 16.8506 20.7661 14.3814 15.131 19.7759 15.6077 14.8578 
18.6884 16.9169 13.1147 16.269 19.3963 14.7509 14.9897 10.4326 20.8898 
16.3978 11.2793 19.898 11.5116 8.60144 21.341 1.50268 4.64277 30.1815 
1.96812 6.18957 31.0392 1.89606 8.09051 32.0353 1.18465 2.57112 25.996 
1.62289 9.93277 33.0177 2.68558 3.43761 24.995 4.11614 4.44154 23.9978 
5.68744 5.17059 22.993 7.18471 6.02905 22.0035 8.21954 7.16572 20.9446 
9.85102 8.12439 19.67 12.3469 21.8879 16.2531 10.2373 22.9267 16.8802 
5.59343 24.7281 19.1688 14.0141 20.9693 15.3514 1.86641 25.3556 19.7218 
1.89754 23.4847 25.9149 1.62858 21.6552 27.2036 1.63527 19.9278 28.2138 
1.8846 18.2983 29.0362 1.67621 16.5305 30.3202 2.16063 14.1449 30.2344 
18.6604 16.7246 11.1491 14.9918 20.1441 13.6481 13.5575 9.74289 19.9783 
19.1798 12.9504 15.8584 12.0401 8.88229 19.4554 1.56034 4.73477 27.9669 
1.49225 6.40135 29.0234 1.63444 8.08847 30 1.61424 9.83781 30.9197 
1.32735 2.82487 24.2679 2.77915 3.92359 23.0263 3.87519 4.2457 21.8012 
5.4716 4.82491 20.909 7.12961 5.88338 19.8832 8.57135 6.92667 18.8841 
10.0528 7.75962 17.8856 12.0782 21.4724 14.3693 10.1835 22.4155 15.0529 
8.44894 23.1849 16.0569 1.87576 26.1371 23.3936 2.09442 25.4412 17.5825 
3.9518 25.1501 16.6781 1.83256 24.6487 24.0628 1.61826 21.6319 25.2374 
1.63577 19.9173 26.2425 1.92265 18.0157 27.4082 1.84569 16.2188 28.6052 
1.81915 11.6477 30.0609 1.63556 13.1574 28.655 17.381 18.0538 11.0447 
18.7018 16.4399 9.13737 16.0337 18.849 10.835 13.3193 20.686 12.7041 
14.5614 10.348 16.8984 13.2908 9.45 18.1899 17.4662 12.2118 15.299 
19.4231 12.951 14.3279 11.753 8.69929 17.488 1.24379 4.50327 25.8848 
2.13223 6.21011 26.9421 2.15538 8.23173 28.1855 1.81537 9.94076 28.629 
1.18465 2.57112 21.992 2.68558 3.43761 20.991 3.87438 4.30273 19.8843 
5.65603 5.06177 18.9568 7.15378 5.99614 18.0032 8.59631 6.78797 17.0063 
9.91242 7.68954 16.0299 10.0552 22.676 13.1427 8.39344 23.4234 13.9644 
6.97147 24.2881 14.7129 1.63586 22.7344 23.2324 1.63213 19.8779 24.2915 
1.63743 18.1862 25.3146 1.65936 16.4977 26.3773 1.6454 14.8433 27.5148 
1.61928 11.5005 27.886 1.62555 13.1728 26.7333 17.0401 17.7561 9.24648 
12.8515 20.609 10.4348 15.1119 18.9808 8.07027 11.677 21.725 11.3741 
12.9679 9.69484 16.3316 17.5135 11.9551 13.1459 19.4224 12.7646 11.7828 
11.7022 8.61 15.5471 1.63426 4.62229 23.994 2.17135 6.27419 24.9858 
1.60904 8.07967 26.0087 1.61628 9.79322 26.875 1.34646 2.76165 20.4217 
4.00049 4.58688 17.9502 5.62144 5.10485 16.972 6.98418 6.17737 15.8895 
8.64864 6.59548 15.0537 10.0434 7.62862 14.0848 9.92256 22.5583 11.2486 
8.49896 23.2943 11.8649 6.92036 24.0619 12.6423 5.46775 24.5526 13.5088 
1.9068 23.2277 20.3381 1.61714 23.172 18.2552 2.17079 25.0631 13.677 
3.65946 24.288 12.7857 1.6649 21.295 21.1784 1.62774 19.8309 22.3105 
1.63481 18.1479 23.354 1.97901 16.4531 24.5097 1.74639 14.7836 25.5885 
1.61909 11.4919 25.8853 1.95007 13.0843 24.7711 20.2745 13.6221 7.13824 
18.6934 12.6969 10.1359 16.7023 17.371 6.66566 18.7453 15.0704 4.62923 
13.4519 20.3358 8.38134 11.8783 21.3335 8.72802 9.82269 22.3722 9.37458 
15.8993 11.1196 12.3582 17.3292 11.8909 11.277 11.5702 8.54682 13.7191 
2.22866 6.40443 23.0053 1.52738 4.70537 21.7777 1.60363 8.08345 23.9533 
1.69529 3.16134 18.6119 2.00722 3.88379 16.905 4.05706 4.3385 15.9828 
5.68306 5.15253 14.9958 7.04698 6.19861 13.9425 8.44318 6.74034 13.168 
8.24321 23.1307 10.0365 1.60645 21.4805 19.3034 1.60466 21.3982 17.3729 
2.32588 24.9708 11.8629 3.73919 24.672 10.732 1.62578 19.7837 20.3365 
1.6101 18.1022 21.3888 1.62502 16.4299 22.4539 1.95563 11.2004 23.7884 
20.0355 13.4839 5.06855 18.3418 12.7543 8.17748 16.8718 12.1589 9.5489 
14.5957 18.8724 5.50489 15.836 17.9177 4.25275 17.309 16.3677 4.06927 
18.6471 14.5128 2.93375 9.751 22.2093 7.51329 8.36676 22.9275 8.11105 
12.6502 9.34284 12.1724 14.2775 10.3714 11.4331 15.7595 11.0869 10.5369 
10.775 8.79733 11.8489 9.31969 7.53767 11.7093 1.70374 5.70712 20.0718 
1.4096 7.67362 21.8585 1.31372 2.37465 16.4027 2.62876 3.38868 14.9706 
4.02308 4.60563 13.8351 7.2985 6.19702 12.0642 6.95327 23.8491 8.94582 
1.59603 19.7255 18.4193 1.6205 22.9329 14.35 1.60718 21.2811 15.4412 
1.61619 19.6229 16.5092 1.98611 24.6747 9.87681 3.6775 23.8221 9.08936 
1.62441 18.0124 19.3772 2.08266 16.523 20.1443 1.95588 14.5581 21.4451 
1.64516 11.6492 21.8871 1.73361 13.0482 20.8223 19.8079 13.3915 3.37432 
18.3252 12.5518 6.37193 16.6198 11.7749 7.36874 14.4635 10.9567 8.4456 
14.1284 19.2193 3.50265 12.1153 20.511 3.76349 15.5381 18.3205 2.46964 
16.7452 17.0884 2.61237 17.954 15.9254 2.18331 9.84568 22.025 5.1924 
8.23394 22.7181 6.29332 13.2184 9.74057 9.72608 10.8987 8.78267 9.5517 
8.85038 7.2793 9.80572 1.98351 5.46741 18.0277 1.63342 8.08847 19.9899 
1.18465 2.57112 13.9839 2.79727 3.00478 12.8361 4.32129 4.14795 12.0192 
7.24216 6.15505 10.1028 1.61114 17.9649 17.5522 1.56004 22.9103 12.4868 
1.73362 21.1044 13.5171 1.56605 19.3781 14.5646 1.64251 17.8447 15.6518 
2.16475 24.4071 7.88121 3.77651 24.2395 6.82952 1.92339 14.8158 20.0029 
1.80109 11.6827 19.6605 1.5936 13.059 18.8069 18.2564 12.4567 4.48256 
19.9982 13.3627 1.49932 16.8257 11.8057 5.50786 15.1208 10.8732 5.95215 
18.7881 14.8883 1.58422 14.5597 19.4689 2.04701 12.9938 20.0859 1.65997 
15.7683 17.8056 1.0114 8.22148 22.498 4.31736 12.3975 9.28454 7.86966 
8.79337 6.87044 7.53319 1.58329 5.71966 15.9854 1.89464 7.8781 18.0225 
1.83811 10.0936 19.055 1.18443 2.5715 11.9819 2.69399 3.44172 11.0027 
4.1255 4.4505 10.0914 6.04017 5.23156 9.23834 6.62998 6.16322 8.01288 
1.77937 22.8676 10.5378 1.59483 19.2646 12.6017 1.70459 16.1016 14.7517 
1.88952 24.369 5.49773 1.61193 13.0397 16.8381 17.6402 12.0003 2.75523 
15.8689 11.124 4.00616 13.0032 9.81526 5.91625 14.1239 10.1675 4.11492 
18.0685 15.5906 0.844297 15.0162 18.9067 1.0617 11.768 20.96 1.41298 
10.4911 21.6884 3.21418 6.36096 22.7351 2.9667 8.51471 22.4041 2.45973 
9.67868 7.55598 5.82908 7.87667 6.51368 5.84068 1.63009 8.07343 15.9741 
1.72284 4.63093 14.1333 1.19207 2.58464 9.98511 2.68431 3.5176 9.02298 
4.14966 4.51274 8.14992 6.04172 5.70783 6.1177 1.73014 14.8311 15.4588 
1.37384 22.5332 8.50052 1.70096 19.097 10.7075 1.76767 14.4303 13.7696 
1.90363 11.2977 15.6288 2.01596 12.9553 14.8626 18.7396 12.6672 1.64693 
16.7847 11.5735 1.15335 15.2012 10.378 2.22396 13.9722 19.7105 0.978801 
10.5862 21.7059 1.26545 6.95469 22.7883 1.4621 10.5752 8.07431 4.0775 
8.80764 7.01651 4.06973 7.0341 5.9963 4.08896 1.74892 9.15887 14.0287 
1.64585 6.37507 12.9869 1.7458 4.66174 11.8964 1.20336 2.65877 7.97033 
2.90307 3.54913 6.8055 4.11023 4.85444 5.99398 5.24563 4.99661 4.10173 
1.87305 22.2855 6.2923 1.82484 20.576 7.56145 1.81216 18.8503 8.57967 
1.86987 17.1549 10.0444 2.24174 14.7783 11.4158 1.45549 24.0971 2.38837 
3.25508 23.8636 2.25138 4.90426 23.6699 2.4955 1.74849 11.5397 13.6054 
11.3907 8.2856 2.07743 17.299 13.8367 1.54043 16.2626 15.3502 1.68077 
11.0323 19.7475 1.29649 9.35922 22.2167 1.07741 14.8954 16.6301 1.38615 
9.70853 7.51834 2.30796 7.94305 6.50687 2.31463 6.1687 5.49687 2.32295 
2.12232 6.35584 9.58954 1.68877 4.64854 9.84702 3.21926 3.85578 3.80888 
1.57521 22.8027 4.3276 2.059 19.2311 6.06199 2.22906 17.2418 7.50516 
1.80964 15.435 9.08161 1.89182 12.1909 11.1142 1.79822 13.4213 9.22433 
2.27899 24.1861 1.04815 15.2497 12.1176 2.14179 15.063 13.9268 1.69163 
13.804 18.1858 1.36932 12.1181 17.7004 1.6768 9.51882 18.4561 1.8452 
9.20932 20.5076 1.44626 13.0262 15.8432 1.72159 5.81072 23.3924 1.13549 
4.83932 23.5582 0.900361 4.39913 4.48922 1.16097 1.75692 4.84357 7.91561 
1.70876 2.50763 3.86707 2.30957 2.91268 1.27459 1.7645 20.5162 4.06539 
1.88044 22.4324 1.82994 1.22691 24.1883 0.913664 1.84275 17.9185 4.38805 
1.79273 16.1712 6.07936 1.70966 14.4817 7.41834 1.78531 11.3863 9.09881 
1.65805 12.4623 7.40472 13.429 11.1398 1.92662 13.3245 13.0201 1.7343 
11.8222 10.1671 1.43281 9.92982 9.35002 1.72932 10.7779 16.2062 1.89346 
7.24781 20.9541 2.33173 7.75063 17.175 1.95427 6.91592 19.1364 2.16186 
1.69873 8.60104 8.22223 2.39533 6.6167 6.68482 1.60943 4.77685 5.97996 
1.69687 18.9893 1.9344 1.80969 16.7978 2.69782 1.59434 15.1898 4.47096 
2.16454 13.6605 5.6227 2.183 11.3165 5.66429 3.65253 23.7722 0.851238 
9.83 11.1616 1.80319 8.1986 8.10573 1.62773 7.1659 15.0403 1.9402 
5.43223 21.1592 1.65596 5.41005 17.4924 1.75967 4.49498 22.4296 1.72458 
6.42283 7.05709 1.64726 4.47129 6.10053 1.9585 2.83982 4.94817 1.64667 
1.44901 4.4747 3.95212 1.23636 3.6997 2.22812 1.95939 17.5821 1.0605 
1.40288 15.4366 1.25507 1.74064 14.4357 2.78624 1.65537 12.5564 3.57861 
1.93228 9.56666 4.02506 8.29294 12.3192 1.77977 6.00119 9.0458 1.75699 
5.36325 15.5874 1.76736 6.2192 13.1309 2.04689 3.73572 18.9776 2.10889 
2.75929 20.8632 1.52811 3.52225 16.757 1.45489 4.6317 8.07497 2.04286 
2.69194 6.94943 1.49275 1.19373 5.78036 1.65255 1.26055 7.79781 2.13489 
1.70947 13.5406 1.2344 4.4603 10.006 1.60719 4.52784 11.7032 1.69492 
4.4944 13.6222 1.67155 3.30437 15.0371 1.81538 2.91887 8.71672 2.17398 
1.28788 11.6452 1.22337 2.79896 12.4856 1.95147 20.4466 13.3452 59.3892 
18.9939 15.3189 58.671 20.4133 12.6758 59.1809 15.9896 18.21 58.0594 
14.9696 19.133 57.4042 9.82634 21.9933 57.9334 8.35424 22.7274 57.9958 
6.26618 23.1279 59.1508 1.11128 23.8681 58.4958 19.0873 14.0461 0.818621 
9.97963 22.1259 0.462945 7.79902 22.3633 0.882614 1.4805 2.68705 5.79685 
16.6389 14.2082 55.7446 15.0453 15.3648 56.4761 14.5374 15.4407 53.8171 
16.3842 14.5228 52.6496 13.6542 17.0194 55.8889 15.0996 15.8459 51.1378 
13.2757 16.9 52.4917 11.5064 18.0113 54.3498 17.1294 14.4346 49.2855 
15.125 12.788 54.2004 11.0924 14.4373 55.1383 10.1012 19.5798 56.3984 
15.0312 16.654 47.8653 13.7478 17.3284 49.8345 10.3306 19.1323 52.4978 
16.9159 14.419 46.6197 10.5511 10.4395 56.4025 15.0312 13.1581 51.2495 
12.8704 13.0684 52.5472 8.43597 14.9581 56.0839 8.06957 17.7157 55.5717 
15.7679 16.1888 45.8597 8.37434 20.2124 54.5414 9.18894 20.6652 51.3012 
17.2897 14.0025 44.3349 8.45411 9.00383 56.0701 12.1619 11.3544 54.726 
14.1108 12.7316 49.1465 11.0555 11.5509 51.4662 5.9677 8.62775 56.373 
9.6266 10.7911 53.3737 5.56846 15.8406 55.7579 6.20364 20.8046 56.4306 
15.0483 16.5298 42.4123 6.83482 21.1847 51.8871 18.1083 14.5988 40.0893 
8.24139 9.68807 50.9615 4.11611 12.1773 55.7091 3.71388 7.06111 56.2975 
3.80899 21.3965 56.9447 15.807 16.3618 39.7847 10.9448 19.8774 44.3104 
8.20252 20.4133 44.3926 5.39521 21.0455 46.4449 17.8935 15.2344 38.1978 
6.94623 9.24034 53.2182 12.6366 12.1126 45.3271 6.51395 9.47515 49.0895 
5.48625 8.36132 51.1787 4.18012 18.6039 56.0989 13.7345 18.9678 39.5524 
9.70241 20.2445 41.5357 6.56809 22.5901 44.3156 3.73791 21.5448 51.2908 
14.528 13.0607 42.0989 11.1153 11.2208 43.2878 4.55344 7.27206 48.6908 
4.61594 7.14904 45.9165 3.624 7.0147 52.0136 7.3272 21.465 42.0177 
3.97295 22.973 43.2379 4.05288 21.2867 54.2209 15.917 13.4697 39.6638 
12.5935 11.9482 41.2885 3.7015 6.26631 43.3432 13.9027 18.7715 35.3071 
11.9231 19.4271 36.9916 9.33192 20.127 37.2528 8.1647 21.6529 39.1055 
5.68454 22.7987 41.3404 17.3241 15.9017 33.0728 14.7145 17.1313 33.0941 
18.2968 14.9702 35.907 7.01302 8.49081 40.1094 11.3446 19.9273 34.7365 
5.76045 22.9613 38.7742 17.9912 14.9824 30.9091 16.4882 17.1044 30.979 
16.281 14.0553 36.7005 4.49624 6.79743 40.484 7.07402 8.49926 37.9953 
8.06118 10.1726 36.7636 4.1253 16.2392 53.6285 9.08948 20.7497 34.3987 
7.02695 22.2189 36.2206 18.0205 15.225 28.8595 16.2568 16.8004 28.4571 
13.4223 12.1269 35.1921 14.9506 13.0179 34.2566 4.70352 7.59364 37.7408 
4.80196 13.5552 53.0416 4.69008 18.612 52.9192 12.5294 19.197 31.7484 
14.4542 18.3064 29.9152 10.1333 20.6584 31.7857 7.0921 22.4927 33.4423 
4.89192 23.3821 35.8121 17.9366 15.328 26.9474 16.4344 16.9846 26.4414 
15.9418 13.5931 32.3286 4.20195 11.5736 51.0025 4.54943 16.1868 50.2378 
11.7798 19.5271 28.397 7.71711 21.5095 30.2221 3.60883 22.9152 40.1005 
4.08274 20.3903 40.9181 18.0224 15.0632 24.682 15.8156 16.4278 24.4008 
12.8767 11.6895 31.5755 15.9677 13.5796 30.3785 4.06757 6.82098 34.004 
9.32852 20.5021 27.8751 6.91514 23.2018 28.9698 13.6366 18.3431 25.6771 
3.67961 23.7985 33.3332 4.52659 17.963 47.6392 3.83996 21.0111 38.0868 
16.6073 16.5827 22.1088 10.1096 10.2491 31.1467 4.06783 6.82086 32.0017 
8.54106 9.37957 29.1387 5.88517 9.76794 46.1759 11.3261 19.7287 25.1149 
6.75269 21.7719 26.9248 14.7382 18.0069 23.0173 3.57971 21.0212 35.7278 
4.1128 18.4448 38.4246 18.1217 14.8219 21.5567 15.9719 13.6782 26.6119 
4.27959 12.8345 45.1858 4.6129 15.3084 45.4277 10.7198 20.1791 22.4178 
8.59258 21.0571 24.0053 4.567 23.243 26.5783 3.68479 17.8926 35.77 
3.94543 15.6922 37.8375 16.7181 16.169 18.8311 14.8151 17.2297 20.2422 
11.1411 11.109 27.2458 14.3113 12.6421 24.8548 9.2627 9.84781 25.6387 
3.90402 6.58472 35.8121 4.23038 8.38293 43.1919 3.32286 8.36956 41.1824 
4.08756 13.953 42.9171 6.48067 22.109 23.1218 12.5623 19.1568 20.3679 
4.18544 22.7256 23.9412 4.14303 14.4882 35.9488 15.7806 13.729 22.616 
11.6408 11.2723 23.9481 3.97901 9.13133 39.195 4.06804 6.82036 25.9958 
3.38135 8.95743 34.4603 4.44898 11.0867 42.3537 10.2274 19.666 19.0285 
7.92245 21.072 20.7635 4.12005 22.671 21.5318 4.12203 12.5007 38.7021 
4.14628 14.4472 33.4568 4.39017 11.4789 34.7433 16.2841 13.7473 19.7847 
4.05745 10.8801 37.1072 7.57018 20.987 18.3252 5.69618 22.5375 19.3032 
4.19169 20.3933 28.9819 3.92196 18.0142 30.4294 4.22244 15.49 31.0586 
16.0547 16.0139 12.4395 13.4215 18.0958 15.1285 3.68049 9.61851 31.99 
3.52465 6.32026 21.7335 7.59999 9.07446 19.6946 9.8004 19.9239 16.2287 
3.74317 23.6737 18.3809 3.48227 21.0813 26.218 18.0836 14.4633 11.9221 
14.0082 17.8154 12.5159 13.0157 12.2384 17.6114 11.0347 10.8465 18.6907 
9.39741 10.0574 17.0168 10.4966 19.1487 13.2173 8.11119 20.9197 13.8659 
6.41889 21.4618 16.1506 3.74697 18.355 26.5888 4.05984 16.1192 28.0187 
3.98773 13.5934 27.7616 16.9205 14.9746 9.70349 14.5672 16.4366 9.79195 
3.329 9.1975 26.9283 5.1787 7.27008 17.134 5.80666 22.0464 13.746 
3.87214 19.292 23.3131 12.2277 18.0079 9.90484 9.91546 19.3471 9.83155 
13.0245 12.1501 14.6803 15.4624 13.351 13.3048 3.61532 6.53591 15.6512 
8.03276 8.7761 14.3276 7.74987 20.8847 11.4871 3.86676 22.4028 11.8495 
3.8405 17.1184 23.3869 4.51115 15.1825 24.9055 16.4329 14.6202 5.85492 
14.3125 15.9689 6.91989 16.4077 14.2066 3.63993 11.9331 17.7074 7.33009 
7.73551 20.3852 8.24073 14.4221 12.9347 11.1687 5.09137 7.38061 14.05 
7.32165 9.29809 12.1016 5.89606 21.7628 9.74678 3.73409 23.3481 14.86 
4.12017 20.3419 17.6192 4.32556 15.7551 21.5553 14.8312 13.3434 8.4445 
12.2623 17.549 4.31504 14.4589 16.6675 3.49852 9.18313 19.2101 6.68074 
11.8176 11.9177 10.8092 4.04737 6.84494 12.0782 5.79444 8.07481 10.5535 
3.96007 19.4372 15.4668 4.1558 22.1755 8.08468 3.7599 16.991 18.6043 
4.52783 10.7973 20.5985 3.7725 13.6328 19.7397 9.74392 19.3925 4.02693 
6.84726 20.6543 5.68021 8.54503 9.98307 9.63589 3.98533 9.08708 18.848 
3.83431 16.7753 15.7482 3.72489 11.9841 17.6807 14.5562 12.9727 5.3239 
12.507 12.6174 5.51916 3.8069 21.5087 5.68631 10.5818 11.7863 7.40393 
4.1255 9.489 16.3635 3.747 15.849 13.7436 4.19335 13.9357 16.0722 
8.64431 9.80359 4.42785 4.73195 7.3773 4.69164 4.13071 20.0934 8.67191 
3.88725 22.0036 3.37893 4.28597 10.4822 13.7347 4.6445 17.7713 8.41633 
6.98352 8.17318 3.84616 4.34735 12.2096 9.80393 12.4841 14.6727 4.16083 
4.1309 7.0504 8.47891 3.76749 16.5383 4.55773 4.27447 10.5202 7.87733 
9.74579 15.6095 5.05216 6.51966 17.5472 4.65224 4.83912 19.7641 4.36714 
8.50335 12.8776 4.45562 4.94192 14.1258 3.99104 8.70024 22.7122 0.793137 
7.90809 12.2668 55.3086 10.8418 12.2536 37.498 4.7595 13.3115 12.7609 
9.25472 15.2521 52.7956 10.8356 14.6585 49.9102 12.1326 15.1409 47.1608 
7.39451 17.3054 51.2156 7.48248 12.8564 50.6172 8.79165 12.9483 46.2051 
11.7921 15.0773 43.716 12.7803 14.6618 39.8288 8.9462 16.8013 43.4295 
5.50087 17.6522 41.944 8.27262 13.522 43.4711 12.8288 15.8283 36.4169 
10.4948 16.5164 38.867 6.94626 12.2253 39.9145 9.45687 16.2746 35.7565 
6.3133 18.5978 36.056 12.9639 15.5613 30.7873 10.182 17.0566 33.047 
8.97479 16.6939 30.2121 7.98001 13.1883 31.9044 9.82094 16.5721 27.2712 
6.56289 17.9657 29.0587 13.0103 14.8227 23.1544 6.81848 18.4873 25.655 
6.52408 19.9226 32.0237 7.06713 12.8965 28.4923 7.48521 16.7765 39.7013 
10.2489 15.8653 21.5957 6.92339 17.9505 22.32 7.51655 14.5574 37.9237 
12.961 15.0581 18.7625 10.5705 13.5507 25.3791 7.43928 12.8328 24.5546 
7.21839 13.1289 35.1965 6.94141 13.0365 20.9621 6.79026 16.9097 18.0873 
10.6795 16.2417 17.2091 12.2583 15.0634 13.8614 6.71081 11.9131 18.2969 
7.12922 17.0974 14.3744 9.93787 13.3364 16.9441 6.6113 12.3638 15.144 
9.47243 15.9198 11.4901 7.40474 15.2504 26.1508 11.4696 14.9918 8.77651 
6.73121 17.7546 10.1551 8.0381 15.823 7.60344 7.34011 12.4711 7.60817 
7.61744 17.0932 46.508 9.81195 13.6035 40.8558 13.2668 15.6795 27.2509 
11.5269 14.3906 33.1079 10.5462 13.2118 29.1741 6.52127 16.8039 33.2809 
4.78937 12.1749 32.0577 8.41442 12.9756 11.6481 10.4609 17.0453 24.1528 
13.9724 20.1602 58.1962 2.08644 8.92326 10.7055 2.70412 9.29126 24.8927 
4.36744 14.5425 40.4643 5.60747 5.3374 42.1914 9.72167 10.07 39.8767 
9.01803 10.6114 48.18 12.6733 21.4196 46.2008 2.18785 25.0432 21.8881 
4.14457 11.3952 26.379 15.674 16.5709 15.8596 2.00907 24.4844 15.925 
10.4959 11.3911 21.327 15.052 13.3571 16.2164 4.152 9.30671 53.9964 
16.1803 17.0961 36.4534 11.779 11.1095 47.6974 2.33151 15.2032 57.7711 
11.2311 21.3562 54.645 1.666 10.7733 17.3596 4.17117 12.2731 23.0508 
10.2986 10.7875 14.1284 14.2975 19.9291 48.3872 7.79793 23.9423 18.0068 
7.46069 9.40627 22.6449 12.7766 21.8184 42.5502 7.39572 8.65066 16.9207 
13.5601 19.9148 52.2483 14.171 12.3808 37.8045 3.79898 18.2004 33.0819 
3.97698 19.105 12.3487 3.803 9.44131 57.2759 16.5885 19.3003 28.8731 
13.8561 12.4211 28.6199 4.03437 20.9978 33.1793 0.655751 24.5214 58.7407 
5.56119 23.8258 0.439136 4.06874 10.7268 29.3726 18.629 17.2549 31.6549 
7.47846 8.83328 7.18389 10.0441 22.9697 25.7672 3.9764 23.9548 52.9619 
2.22851 24.2724 51.5105 4.31982 22.8448 29.5346 5.75587 5.36125 50.4407 
1.99953 6.52476 57.746 2.05322 5.3521 56.2429 3.97517 25.3995 35.1187 
7.92666 10.3154 43.6323 4.28378 25.311 30.1994 2.41392 6.49712 3.7645 
18.4964 14.0277 17.7878 8.83949 20.2871 48.033 17.8073 18.5621 32.9608 
12.9713 18.701 42.0949 6.17008 8.52824 27.9005 5.15771 20.1401 49.2228 
12.6902 19.0878 17.5665 10.0875 10.2718 34.2316 18.9488 17.331 37.2961 
6.12401 8.45706 34.1924 4.58547 13.191 48.5686 17.7157 14.5837 14.8465 
16.9805 16.8988 1.04111 10.6797 8.86708 6.54763 11.8636 21.7783 38.998 
8.04243 20.9326 58.174 5.07404 25.2583 33.0621 12.9887 9.8249 39.4296 
14.0232 10.2216 27.2585 8.54384 22.5736 53.4036 4.84529 24.5727 45.5148 
17.7022 12.1536 17.8485 14.3302 20.94 37.9259 13.1379 21.5102 32.8322 
1.7357 12.373 42.0389 4.35881 19.5614 44.1941 2.29779 15.2772 51.5906 
8.59988 7.10392 27.7936 14.7385 19.9261 10.8107 2.33944 25.52 31.9708 
11.7401 8.74664 31.8029 9.42125 7.30472 32.5515 1.61259 19.9585 31.1881 
20.2613 14.5772 22.3314 15.51 20.0509 19.217 9.12054 7.20219 39.3931 
2.00111 10.3989 1.81615 15.155 19.9451 27.99 4.123 19.7721 20.3484 
5.70207 23.4581 4.62537 12.8697 9.25959 2.96239 4.92591 23.9608 49.1784 
18.9831 17.3414 29.6026 20.3435 13.7534 42.6721 10.9359 8.49587 23.5181 
3.71077 4.12655 52.2887 5.19746 7.95488 24.1288 13.7681 10.1421 13.9577 
1.78193 19.8327 49.1105 7.42704 23.2285 49.8654 2.10661 9.16342 45.7477 
2.69013 13.1926 57.5694 17.5438 13.7976 42.0607 2.03496 9.10202 6.28472 
14.9386 12.9869 46.4591 7.01276 10.7213 1.93197 11.7547 18.4955 49.207 
20.0596 14.7344 12.8562 20.197 14.0444 8.89561 17.3832 18.7287 19.2362 
1.96419 15.3249 42.1769 7.6678 6.81982 36.5367 11.6034 10.9677 58.3986 
6.11252 5.86269 53.4879 1.75179 7.61187 34.4539 1.82013 13.4985 32.4277 
5.97615 24.1739 31.1337 13.9453 12.2913 20.9391 3.06362 25.5617 28.2935 
6.62977 9.19181 31.1762 4.98314 7.1774 20.1473 6.35392 6.13315 31.5846 
1.92821 20.8607 10.4679 2.5096 25.5526 25.5273 2.48743 15.8041 44.0001 
1.8246 15.5587 17.4952 10.5096 14.011 2.1606 4.78451 10.9171 4.29111 
15.051 10.5439 33.2654 18.6129 15.3847 6.63807 12.6191 21.1629 0.714525 
19.7432 14.7119 59.6134 1.76063 17.2512 13.0563 2.15832 19.7236 46.7516 
11.367 11.3531 3.18131 1.67501 5.29174 51.6901 13.0262 9.62015 45.45 
4.46366 14.2563 7.02793 15.3515 10.8881 18.656 2.1881 17.6456 40.103 
13.2176 9.73247 22.8149 10.3082 8.84072 45.7156 2.6969 9.42951 21.9594 
13.0572 18.1598 45.5655 5.90658 24.4856 16.2277 9.42362 7.36614 30.5077 
1.89357 11.5326 47.2428 7.05871 23.1181 54.5456 1.8413 21.8572 43.2392 
7.35416 24.385 39.7511 3.29221 23.7819 4.14045 5.71581 24.022 10.264 
16.7821 18.3576 13.3909 15.9406 11.104 15.7214 1.61115 13.9614 23.1775 
12.2431 20.6402 6.16709 2.36916 25.3792 39.3985 2.46349 17.2605 57.5991 
9.19652 7.32415 41.7606 13.6506 12.7024 56.2835 5.97232 23.5558 7.39988 
16.2329 19.038 43.5369 3.77359 6.73269 29.067 20.6499 14.8991 38.0739 
2.39303 9.37445 48.7631 11.6793 21.5781 51.3914 9.00476 23.9067 35.6479 
4.91314 15.4987 10.4954 19.1444 16.8208 34.5384 8.75051 23.2961 43.4584 
20.2125 14.4993 10.8256 5.71788 5.22638 12.0437 10.2991 22.402 59.5875 
2.3868 24.6664 0.601398 0.245545 24.4646 0.104778 9.29251 22.5603 0.248681 
20.9311 12.9783 59.7572 9.28613 22.5179 0.051219 17.851 16.4443 59.8237 
1.29675 1.64297 1.81388 1.88019 24.054 0.280138 15.4428 18.8482 59.6419 
18.7563 15.4169 59.8209 11.825 21.0545 0.416042 21.0415 12.5242 59.6164 
10.9152 21.4868 59.6046 0.205685 24.344 59.8116 19.4396 14.6397 59.9006 
9.04677 22.7412 0.237442 9.82224 22.2857 0.112917 18.4191 15.8123 0.232237 
15.5045 18.9048 0.400396 17.887 16.5528 0.416279 20.3732 12.5023 0.418737 
21.0712 12.7434 58.9072 8.29325 22.7406 59.8315 0.750264 24.3066 59.3436 
7.84957 23.0574 59.506 1.27084 24.3195 0.220865 13.0792 20.4206 0.478262 
12.9551 20.381 59.4785 2.88245 24.2258 0.45447 9.29248 22.1036 59.5479 
8.10371 22.8398 0.19412 5.62221 23.834 59.6775 1.47397 1.67238 59.3377 
6.7363 23.2712 0.517345 0.448671 24.682 0.682828 10.0162 22.2654 0.106887 
14.4175 19.4146 0.387442 7.05706 23.1279 59.5237 0.708937 1.22387 2.98582 
0.590429 1.96617 0.676542 0.849603 2.98895 0.80252 19.2291 14.9657 59.7358 
13.6483 20.1674 59.7582 11.5284 21.4416 0.432501 17.3358 17.1846 59.6519 
6.3179 23.5424 59.8391 5.01873 23.7724 0.246089 17.6536 16.8859 0.357219 
14.7223 19.2824 59.7842 0.933512 26.8168 32.3976 0.679878 24.8505 58.1736 
21.7719 13.605 9.78346 15.6328 18.4421 0.630996 12.6137 8.20686 0.97575 
10.3874 22.0545 0.258464 17.0292 17.1415 0.245108 0.695207 1.10361 57.8621 
0.918938 26.5311 26.2467 2.45374 24.0893 59.5928 0.903451 26.5419 29.0799 
0.495604 24.8871 2.10944 0.880231 7.1733 59.1345 1.37691 2.37023 58.4903 
21.1572 12.6649 0.983718 19.8842 13.826 0.468838 1.06362 26.3272 40.2755 
22.0845 13.5643 48.0254 22.2852 13.9149 17.4389 0.609334 17.2603 59.4041 
0.688269 21.9418 59.2601 0.743247 22.8023 0.593546 21.2636 12.9053 57.5499 
0.629315 26.4295 32.9215 0.78816 3.04275 59.2172 22.2314 13.6469 46.0579 
21.1125 12.8928 1.83141 0.574502 23.9934 0.44872 9.13587 5.98281 59.3665 
16.9138 10.7112 59.1429 22.7439 13.9278 32.2934 21.0894 13.0403 3.24272 
3.94446 3.06612 0.606059 0.762207 24.9692 4.88263 0.853976 23.4102 59.1993 
1.02167 25.9851 46.1027 22.6435 13.9066 34.1454 0.740841 26.2594 17.0663 
0.766057 26.3465 19.0725 0.750752 1.30036 38.008 0.872261 21.306 0.732043 
22.1653 13.7248 14.7781 0.794655 26.407 21.0835 0.729329 26.1386 15.0444 
21.8755 13.4982 50.0614 21.6295 13.4059 7.87388 0.723514 25.9854 13.0375 
0.721768 25.8077 11.0417 22.484 13.7688 42.0485 0.688804 15.0877 59.3436 
22.3725 13.7122 44.0377 21.6262 13.4573 52.0011 0.700079 1.22284 16.0457 
0.742829 25.3181 7.00624 18.5738 11.6617 59.1629 0.727456 25.5865 9.02829 
10.8963 7.13182 59.2367 12.6364 8.11841 59.2373 1.07535 12.8415 59.0368 
3.77414 3.17289 59.1062 1.00308 25.7219 49.029 22.5531 13.8145 40.0815 
22.6049 13.8485 38.1057 0.750752 1.30036 34.004 0.784752 18.3566 0.828457 
1.01409 25.5025 51.0641 1.19091 24.99 52.9506 0.7025 1.27468 52.0339 
14.5 9.3583 0.848562 0.750752 1.30036 40.01 0.750752 1.30036 36.006 
0.561676 24.686 1.57087 0.696023 12.6034 0.588164 22.6342 13.8778 36.1332 
0.700656 1.27024 9.97608 0.698295 1.25976 42.012 0.698295 1.25976 44.014 
0.698295 1.25976 25.996 0.698295 1.25976 13.9839 0.698295 1.25976 21.992 
0.698287 1.25977 48.018 0.698288 1.25979 46.016 0.697828 1.2595 11.9815 
0.698284 1.2638 50.0216 18.977 15.0802 0.424042 22.104 13.6719 12.9214 
20.8643 13.0028 58.4854 1.03595 26.1187 44.1195 22.4624 13.9655 22.2992 
22.4029 13.944 20.3266 0.903174 1.48912 55.0812 22.4612 13.9852 24.3078 
22.5929 13.9668 28.2199 22.619 13.9526 30.1972 22.5533 13.9714 26.2349 
0.715096 1.29429 7.96672 0.694953 1.28436 32.0078 0.750752 1.30036 19.9899 
1.01846 26.1999 42.1635 0.882033 24.6096 56.4484 1.08333 26.3595 38.1738 
0.750752 1.30036 23.994 0.750752 1.30036 30 0.750752 1.30036 27.998 
0.870174 26.5162 24.1743 0.778104 1.33254 5.94555 7.46317 5.32379 0.84701 
5.70151 4.21871 0.867925 9.2195 6.33741 0.847282 10.9756 7.35137 0.8471 
0.750752 1.30036 17.9879 0.635377 1.44759 53.9601 16.3588 10.3037 0.818895 
0.72298 4.80314 0.870019 0.773848 16.4451 0.624789 0.869541 5.05433 59.1227 
0.839813 8.74333 0.835138 21.4247 13.2142 5.95092 0.88106 9.06533 59.1819 
1.10252 26.4045 36.0733 0.732458 6.75607 0.83975 21.2264 13.31 55.0175 
18.0958 11.2618 0.795184 0.474689 24.2602 0.334951 9.62123 22.3973 0.0378978 
0.80635 1.94211 2.25164 0.60438 1.81613 1.47971 20.7599 12.392 59.6904 
9.04942 22.7337 0.0728287 17.9539 16.4455 0.109601 1.39895 1.83016 0.475729 
7.8567 23.0492 59.8774 0.849821 2.1713 59.3274 21.1323 12.7201 59.2173 
0.494022 24.2938 59.6061 21.2181 12.5043 59.4199 13.5121 20.0969 0.426689 
15.6344 18.4797 59.3659 18.1318 16.0428 0.217043 11.2736 21.6212 59.8668 
0.445748 24.6127 59.162 11.0253 21.6006 0.652294 2.5008 24.1871 0.255002 
20.3769 13.1271 0.375519 17.5535 16.5509 59.2656 0.657085 24.6914 57.4149 
0.515691 24.6619 1.04321 5.11589 23.6623 59.5578 12.5271 20.7264 59.7691 
16.9307 17.4608 59.625 0.722769 0.96022 58.7023 20.8834 12.4663 0.264754 
6.73197 23.3334 59.8172 14.9999 18.975 59.3881 16.0743 18.4814 0.462781 
0.983432 25.868 47.0825 0.721179 23.4449 0.630309 0.719931 26.5089 34.1593 
1.1005 20.3787 0.954502 16.7514 17.6021 0.282158 0.91079 1.1795 4.02355 
8.56066 22.9044 0.190138 14.8611 19.3151 0.211643 0.836549 1.22927 56.1186 
19.7286 12.2513 0.666648 22.3043 13.8657 18.4044 5.97973 23.7122 59.783 
20.9869 12.9761 2.48605 1.19579 24.2795 59.6608 21.1527 12.7258 1.40772 
14.3712 19.6126 59.7053 22.342 13.742 41.0862 0.857528 1.56994 33.1129 
0.858074 1.54893 40.8996 0.871494 1.49131 36.864 21.167 13.0279 56.7847 
9.88295 22.0575 59.582 0.736676 22.0724 0.662046 0.757293 26.3961 28.062 
22.2446 13.7098 45.0462 0.77372 25.9959 14.0576 17.6981 11.3821 59.1386 
22.5269 14.0025 31.2578 0.961414 21.0715 59.2225 15.8594 10.4532 59.1378 
21.3251 13.5929 52.9498 0.691041 22.7146 59.4584 0.76658 26.3818 20.0695 
21.32 12.9256 58.0702 0.725839 25.7008 10.0235 0.750752 1.30036 16.9869 
21.201 13.0848 4.07409 1.19978 25.5067 50.0677 0.79337 25.4322 8.04285 
21.6972 13.5298 51.0386 0.754096 25.1615 5.95844 22.5041 13.8846 39.0962 
0.791616 26.2899 18.0722 1.18752 25.8854 48.0673 0.897717 25.535 52.09 
22.0522 13.8487 13.8824 22.3845 13.7355 43.0526 22.3525 14.0116 19.3593 
22.3204 14.0055 21.311 22.3253 14.0271 23.3081 22.943 13.8577 33.1764 
22.5262 13.983 25.2661 0.721263 25.9058 12.0191 22.5429 14.0484 27.2268 
22.5924 14.0481 29.2073 0.729097 26.2075 16.0392 0.790957 24.7784 3.7698 
21.97 13.7123 11.9016 0.750752 1.30036 18.9889 22.6357 13.9011 35.1183 
22.6189 13.869 37.1013 1.00623 26.5108 30.1574 0.890685 25.0217 54.1713 
19.4023 12.1236 59.3374 22.334 13.7097 15.6522 0.750752 1.30036 14.9849 
0.750752 1.30036 26.997 0.750752 1.30036 28.999 0.750752 1.30036 22.993 
0.594232 0.972678 56.9296 0.844562 26.4532 22.176 22.3156 13.6626 47.0479 
22.1218 13.598 49.1009 0.750752 1.30036 31.001 0.774784 1.33413 6.95892 
0.762559 1.32364 8.97206 0.75239 1.31106 51.0229 0.752744 1.29921 10.9809 
0.751016 1.3002 49.019 0.750752 1.30036 12.9829 0.750752 1.30036 47.017 
0.750752 1.30036 45.015 0.750752 1.30036 43.013 0.750752 1.30036 24.995 
0.750752 1.30036 20.991 0.762012 1.33152 53.0454 0.647551 1.11367 39.009 
0.647551 1.11367 35.005 9.54436 22.3308 0.351125 0.370665 24.5294 0.462511 
7.46558 23.1451 59.6977 1.26001 1.51252 58.4899 8.83584 22.8587 0.181498 
0.618617 23.831 59.4324 15.7715 18.5709 59.8234 2.25935 2.29417 59.3799 
0.285684 24.6308 59.4584 20.8275 12.6978 0.635399 0.399385 1.05187 2.05164 
0.634539 1.0915 0.401908 0.664786 1.22714 59.5376 0.794763 1.28994 4.9637 
0.589432 0.998001 1.32024 
METADATA
INFORMATION 2
NAME L2_NORM_RANGE LOCATION vtkDataArray
DATA 2 0.030068 64.9348 
NAME L2_NORM_FINITE_RANGE LOCATION vtkDataArray
DATA 2 0.030068 64.9348 

CELLS 15233 60928
OFFSETS vtktypeint64
0 4 8 12 16 20 24 28 32 
36 40 44 48 52 56 60 64 68 
72 76 80 84 88 92 96 100 104 
108 112 116 120 124 128 132 136 140 
144 148 152 156 160 164 168 172 176 
180 184 188 192 196 200 204 208 212 
216 220 224 228 232 236 240 244 248 
252 256 260 264 268 272 276 280 284 
288 292 296 300 304 308 312 316 320 
324 328 332 336 340 344 348 352 356 
360 364 368 372 376 380 384 388 392 
396 400 404 408 412 416 420 424 428 
432 436 440 444 448 452 456 460 464 
468 472 476 480 484 488 492 496 500 
504 508 512 516 520 524 528 532 536 
540 544 548 552 556 560 564 568 572 
576 580 584 588 592 596 600 604 608 
612 616 620 624 628 632 636 640 644 
648 652 656 660 664 668 672 676 680 
684 688 692 696 700 704 708 712 716 
720 724 728 732 736 740 744 748 752 
756 760 764 768 772 776 780 784 788 
792 796 800 804 808 812 816 820 824 
828 832 836 840 844 848 852 856 860 
864 868 872 876 880 884 888 892 896 
900 904 908 912 916 920 924 928 932 
936 940 944 948 952 956 960 964 968 
972 976 980 984 988 992 996 1000 1004 
1008 1012 1016 1020 1024 1028 1032 1036 1040 
1044 1048 1052 1056 1060 1064 1068 1072 1076 
1080 1084 1088 1092 1096 1100 1104 1108 1112 
1116 1120 1124 1128 1132 1136 1140 1144 1148 
1152 1156 1160 1164 1168 1172 1176 1180 1184 
1188 1192 1196 1200 1204 1208 1212 1216 1220 
1224 1228 1232 1236 1240 1244 1248 1252 1256 
1260 1264 1268 1272 1276 1280 1284 1288 1292 
1296 1300 1304 1308 1312 1316 1320 1324 1328 
1332 1336 1340 1344 1348 1352 1356 1360 1364 
1368 1372 1376 1380 1384 1388 1392 1396 1400 
1404 1408 1412 1416 1420 1424 1428 1432 1436 
1440 1444 1448 1452 1456 1460 1464 1468 1472 
1476 1480 1484 1488 1492 1496 1500 1504 1508 
1512 1516 1520 1524 1528 1532 1536 1540 1544 
1548 1552 1556 1560 1564 1568 1572 1576 1580 
1584 1588 1592 1596 1600 1604 1608 1612 1616 
1620 1624 1628 1632 1636 1640 1644 1648 1652 
1656 1660 1664 1668 1672 1676 1680 1684 1688 
1692 1696 1700 1704 1708 1712 1716 1720 1724 
1728 1732 1736 1740 1744 1748 1752 1756 1760 
1764 1768 1772 1776 1780 1784 1788 1792 1796 
1800 1804 1808 1812 1816 1820 1824 1828 1832 
1836 1840 1844 1848 1852 1856 1860 1864 1868 
1872 1876 1880 1884 1888 1892 1896 1900 1904 
1908 1912 1916 1920 1924 1928 1932 1936 1940 
1944 1948 1952 1956 1960 1964 1968 1972 1976 
1980 1984 1988 1992 1996 2000 2004 2008 2012 
2016 2020 2024 2028 2032 2036 2040 2044 2048 
2052 2056 2060 2064 2068 2072 2076 2080 2084 
2088 2092 2096 2100 2104 2108 2112 2116 2120 
2124 2128 2132 2136 2140 2144 2148 2152 2156 
2160 2164 2168 2172 2176 2180 2184 2188 2192 
2196 2200 2204 2208 2212 2216 2220 2224 2228 
2232 2236 2240 2244 2248 2252 2256 2260 2264 
2268 2272 2276 2280 2284 2288 2292 2296 2300 
2304 2308 2312 2316 2320 2324 2328 2332 2336 
2340 2344 2348 2352 2356 2360 2364 2368 2372 
2376 2380 2384 2388 2392 2396 2400 2404 2408 
2412 2416 2420 2424 2428 2432 2436 2440 2444 
2448 2452 2456 2460 2464 2468 2472 2476 2480 
2484 2488 2492 2496 2500 2504 2508 2512 2516 
2520 2524 2528 2532 2536 2540 2544 2548 2552 
2556 2560 2564 2568 2572 2576 2580 2584 2588 
2592 2596 2600 2604 2608 2612 2616 2620 2624 
2628 2632 2636 2640 2644 2648 2652 2656 2660 
2664 2668 2672 2676 2680 2684 2688 2692 2696 
2700 2704 2708 2712 2716 2720 2724 2728 2732 
2736 2740 2744 2748 2752 2756 2760 2764 2768 
2772 2776 2780 2784 2788 2792 2796 2800 2804 
2808 2812 2816 2820 2824 2828 2832 2836 2840 
2844 2848 2852 2856 2860 2864 2868 2872 2876 
2880 2884 2888 2892 2896 2900 2904 2908 2912 
2916 2920 2924 2928 2932 2936 2940 2944 2948 
2952 2956 2960 2964 2968 2972 2976 2980 2984 
2988 2992 2996 3000 3004 3008 3012 3016 3020 
3024 3028 3032 3036 3040 3044 3048 3052 3056 
3060 3064 3068 3072 3076 3080 3084 3088 3092 
3096 3100 3104 3108 3112 3116 3120 3124 3128 
3132 3136 3140 3144 3148 3152 3156 3160 3164 
3168 3172 3176 3180 3184 3188 3192 3196 3200 
3204 3208 3212 3216 3220 3224 3228 3232 3236 
3240 3244 3248 3252 3256 3260 3264 3268 3272 
3276 3280 3284 3288 3292 3296 3300 3304 3308 
3312 3316 3320 3324 3328 3332 3336 3340 3344 
3348 3352 3356 3360 3364 3368 3372 3376 3380 
3384 3388 3392 3396 3400 3404 3408 3412 3416 
3420 3424 3428 3432 3436 3440 3444 3448 3452 
3456 3460 3464 3468 3472 3476 3480 3484 3488 
3492 3496 3500 3504 3508 3512 3516 3520 3524 
3528 3532 3536 3540 3544 3548 3552 3556 3560 
3564 3568 3572 3576 3580 3584 3588 3592 3596 
3600 3604 3608 3612 3616 3620 3624 3628 3632 
3636 3640 3644 3648 3652 3656 3660 3664 3668 
3672 3676 3680 3684 3688 3692 3696 3700 3704 
3708 3712 3716 3720 3724 3728 3732 3736 3740 
3744 3748 3752 3756 3760 3764 3768 3772 3776 
3780 3784 3788 3792 3796 3800 3804 3808 3812 
3816 3820 3824 3828 3832 3836 3840 3844 3848 
3852 3856 3860 3864 3868 3872 3876 3880 3884 
3888 3892 3896 3900 3904 3908 3912 3916 3920 
3924 3928 3932 3936 3940 3944 3948 3952 3956 
3960 3964 3968 3972 3976 3980 3984 3988 3992 
3996 4000 4004 4008 4012 4016 4020 4024 4028 
4032 4036 4040 4044 4048 4052 4056 4060 4064 
4068 4072 4076 4080 4084 4088 4092 4096 4100 
4104 4108 4112 4116 4120 4124 4128 4132 4136 
4140 4144 4148 4152 4156 4160 4164 4168 4172 
4176 4180 4184 4188 4192 4196 4200 4204 4208 
4212 4216 4220 4224 4228 4232 4236 4240 4244 
4248 4252 4256 4260 4264 4268 4272 4276 4280 
4284 4288 4292 4296 4300 4304 4308 4312 4316 
4320 4324 4328 4332 4336 4340 4344 4348 4352 
4356 4360 4364 4368 4372 4376 4380 4384 4388 
4392 4396 4400 4404 4408 4412 4416 4420 4424 
4428 4432 4436 4440 4444 4448 4452 4456 4460 
4464 4468 4472 4476 4480 4484 4488 4492 4496 
4500 4504 4508 4512 4516 4520 4524 4528 4532 
4536 4540 4544 4548 4552 4556 4560 4564 4568 
4572 4576 4580 4584 4588 4592 4596 4600 4604 
4608 4612 4616 4620 4624 4628 4632 4636 4640 
4644 4648 4652 4656 4660 4664 4668 4672 4676 
4680 4684 4688 4692 4696 4700 4704 4708 4712 
4716 4720 4724 4728 4732 4736 4740 4744 4748 
4752 4756 4760 4764 4768 4772 4776 4780 4784 
4788 4792 4796 4800 4804 4808 4812 4816 4820 
4824 4828 4832 4836 4840 4844 4848 4852 4856 
4860 4864 4868 4872 4876 4880 4884 4888 4892 
4896 4900 4904 4908 4912 4916 4920 4924 4928 
4932 4936 4940 4944 4948 4952 4956 4960 4964 
4968 4972 4976 4980 4984 4988 4992 4996 5000 
5004 5008 5012 5016 5020 5024 5028 5032 5036 
5040 5044 5048 5052 5056 5060 5064 5068 5072 
5076 5080 5084 5088 5092 5096 5100 5104 5108 
5112 5116 5120 5124 5128 5132 5136 5140 5144 
5148 5152 5156 5160 5164 5168 5172 5176 5180 
5184 5188 5192 5196 5200 5204 5208 5212 5216 
5220 5224 5228 5232 5236 5240 5244 5248 5252 
5256 5260 5264 5268 5272 5276 5280 5284 5288 
5292 5296 5300 5304 5308 5312 5316 5320 5324 
5328 5332 5336 5340 5344 5348 5352 5356 5360 
5364 5368 5372 5376 5380 5384 5388 5392 5396 
5400 5404 5408 5412 5416 5420 5424 5428 5432 
5436 5440 5444 5448 5452 5456 5460 5464 5468 
5472 5476 5480 5484 5488 5492 5496 5500 5504 
5508 5512 5516 5520 5524 5528 5532 5536 5540 
5544 5548 5552 5556 5560 5564 5568 5572 5576 
5580 5584 5588 5592 5596 5600 5604 5608 5612 
5616 5620 5624 5628 5632 5636 5640 5644 5648 
5652 5656 5660 5664 5668 5672 5676 5680 5684 
5688 5692 5696 5700 5704 5708 5712 5716 5720 
5724 5728 5732 5736 5740 5744 5748 5752 5756 
5760 5764 5768 5772 5776 5780 5784 5788 5792 
5796 5800 5804 5808 5812 5816 5820 5824 5828 
5832 5836 5840 5844 5848 5852 5856 5860 5864 
5868 5872 5876 5880 5884 5888 5892 5896 5900 
5904 5908 5912 5916 5920 5924 5928 5932 5936 
5940 5944 5948 5952 5956 5960 5964 5968 5972 
5976 5980 5984 5988 5992 5996 6000 6004 6008 
6012 6016 6020 6024 6028 6032 6036 6040 6044 
6048 6052 6056 6060 6064 6068 6072 6076 6080 
6084 6088 6092 6096 6100 6104 6108 6112 6116 
6120 6124 6128 6132 6136 6140 6144 6148 6152 
6156 6160 6164 6168 6172 6176 6180 6184 6188 
6192 6196 6200 6204 6208 6212 6216 6220 6224 
6228 6232 6236 6240 6244 6248 6252 6256 6260 
6264 6268 6272 6276 6280 6284 6288 6292 6296 
6300 6304 6308 6312 6316 6320 6324 6328 6332 
6336 6340 6344 6348 6352 6356 6360 6364 6368 
6372 6376 6380 6384 6388 6392 6396 6400 6404 
6408 6412 6416 6420 6424 6428 6432 6436 6440 
6444 6448 6452 6456 6460 6464 6468 6472 6476 
6480 6484 6488 6492 6496 6500 6504 6508 6512 
6516 6520 6524 6528 6532 6536 6540 6544 6548 
6552 6556 6560 6564 6568 6572 6576 6580 6584 
6588 6592 6596 6600 6604 6608 6612 6616 6620 
6624 6628 6632 6636 6640 6644 6648 6652 6656 
6660 6664 6668 6672 6676 6680 6684 6688 6692 
6696 6700 6704 6708 6712 6716 6720 6724 6728 
6732 6736 6740 6744 6748 6752 6756 6760 6764 
6768 6772 6776 6780 6784 6788 6792 6796 6800 
6804 6808 6812 6816 6820 6824 6828 6832 6836 
6840 6844 6848 6852 6856 6860 6864 6868 6872 
6876 6880 6884 6888 6892 6896 6900 6904 6908 
6912 6916 6920 6924 6928 6932 6936 6940 6944 
6948 6952 6956 6960 6964 6968 6972 6976 6980 
6984 6988 6992 6996 7000 7004 7008 7012 7016 
7020 7024 7028 7032 7036 7040 7044 7048 7052 
7056 7060 7064 7068 7072 7076 7080 7084 7088 
7092 7096 7100 7104 7108 7112 7116 7120 7124 
7128 7132 7136 7140 7144 7148 7152 7156 7160 
7164 7168 7172 7176 7180 7184 7188 7192 7196 
7200 7204 7208 7212 7216 7220 7224 7228 7232 
7236 7240 7244 7248 7252 7256 7260 7264 7268 
7272 7276 7280 7284 7288 7292 7296 7300 7304 
7308 7312 7316 7320 7324 7328 7332 7336 7340 
7344 7348 7352 7356 7360 7364 7368 7372 7376 
7380 7384 7388 7392 7396 7400 7404 7408 7412 
7416 7420 7424 7428 7432 7436 7440 7444 7448 
7452 7456 7460 7464 7468 7472 7476 7480 7484 
7488 7492 7496 7500 7504 7508 7512 7516 7520 
7524 7528 7532 7536 7540 7544 7548 7552 7556 
7560 7564 7568 7572 7576 7580 7584 7588 7592 
7596 7600 7604 7608 7612 7616 7620 7624 7628 
7632 7636 7640 7644 7648 7652 7656 7660 7664 
7668 7672 7676 7680 7684 7688 7692 7696 7700 
7704 7708 7712 7716 7720 7724 7728 7732 7736 
7740 7744 7748 7752 7756 7760 7764 7768 7772 
7776 7780 7784 7788 7792 7796 7800 7804 7808 
7812 7816 7820 7824 7828 7832 7836 7840 7844 
7848 7852 7856 7860 7864 7868 7872 7876 7880 
7884 7888 7892 7896 7900 7904 7908 7912 7916 
7920 7924 7928 7932 7936 7940 7944 7948 7952 
7956 7960 7964 7968 7972 7976 7980 7984 7988 
7992 7996 8000 8004 8008 8012 8016 8020 8024 
8028 8032 8036 8040 8044 8048 8052 8056 8060 
8064 8068 8072 8076 8080 8084 8088 8092 8096 
8100 8104 8108 8112 8116 8120 8124 8128 8132 
8136 8140 8144 8148 8152 8156 8160 8164 8168 
8172 8176 8180 8184 8188 8192 8196 8200 8204 
8208 8212 8216 8220 8224 8228 8232 8236 8240 
8244 8248 8252 8256 8260 8264 8268 8272 8276 
8280 8284 8288 8292 8296 8300 8304 8308 8312 
8316 8320 8324 8328 8332 8336 8340 8344 8348 
8352 8356 8360 8364 8368 8372 8376 8380 8384 
8388 8392 8396 8400 8404 8408 8412 8416 8420 
8424 8428 8432 8436 8440 8444 8448 8452 8456 
8460 8464 8468 8472 8476 8480 8484 8488 8492 
8496 8500 8504 8508 8512 8516 8520 8524 8528 
8532 8536 8540 8544 8548 8552 8556 8560 8564 
8568 8572 8576 8580 8584 8588 8592 8596 8600 
8604 8608 8612 8616 8620 8624 8628 8632 8636 
8640 8644 8648 8652 8656 8660 8664 8668 8672 
8676 8680 8684 8688 8692 8696 8700 8704 8708 
8712 8716 8720 8724 8728 8732 8736 8740 8744 
8748 8752 8756 8760 8764 8768 8772 8776 8780 
8784 8788 8792 8796 8800 8804 8808 8812 8816 
8820 8824 8828 8832 8836 8840 8844 8848 8852 
8856 8860 8864 8868 8872 8876 8880 8884 8888 
8892 8896 8900 8904 8908 8912 8916 8920 8924 
8928 8932 8936 8940 8944 8948 8952 8956 8960 
8964 8968 8972 8976 8980 8984 8988 8992 8996 
9000 9004 9008 9012 9016 9020 9024 9028 9032 
9036 9040 9044 9048 9052 9056 9060 9064 9068 
9072 9076 9080 9084 9088 9092 9096 9100 9104 
9108 9112 9116 9120 9124 9128 9132 9136 9140 
9144 9148 9152 9156 9160 9164 9168 9172 9176 
9180 9184 9188 9192 9196 9200 9204 9208 9212 
9216 9220 9224 9228 9232 9236 9240 9244 9248 
9252 9256 9260 9264 9268 9272 9276 9280 9284 
9288 9292 9296 9300 9304 9308 9312 9316 9320 
9324 9328 9332 9336 9340 9344 9348 9352 9356 
9360 9364 9368 9372 9376 9380 9384 9388 9392 
9396 9400 9404 9408 9412 9416 9420 9424 9428 
9432 9436 9440 9444 9448 9452 9456 9460 9464 
9468 9472 9476 9480 9484 9488 9492 9496 9500 
9504 9508 9512 9516 9520 9524 9528 9532 9536 
9540 9544 9548 9552 9556 9560 9564 9568 9572 
9576 9580 9584 9588 9592 9596 9600 9604 9608 
9612 9616 9620 9624 9628 9632 9636 9640 9644 
9648 9652 9656 9660 9664 9668 9672 9676 9680 
9684 9688 9692 9696 9700 9704 9708 9712 9716 
9720 9724 9728 9732 9736 9740 9744 9748 9752 
9756 9760 9764 9768 9772 9776 9780 9784 9788 
9792 9796 9800 9804 9808 9812 9816 9820 9824 
9828 9832 9836 9840 9844 9848 9852 9856 9860 
9864 9868 9872 9876 9880 9884 9888 9892 9896 
9900 9904 9908 9912 9916 9920 9924 9928 9932 
9936 9940 9944 9948 9952 9956 9960 9964 9968 
9972 9976 9980 9984 9988 9992 9996 10000 10004 
10008 10012 10016 10020 10024 10028 10032 10036 10040 
10044 10048 10052 10056 10060 10064 10068 10072 10076 
10080 10084 10088 10092 10096 10100 10104 10108 10112 
10116 10120 10124 10128 10132 10136 10140 10144 10148 
10152 10156 10160 10164 10168 10172 10176 10180 10184 
10188 10192 10196 10200 10204 10208 10212 10216 10220 
10224 10228 10232 10236 10240 10244 10248 10252 10256 
10260 10264 10268 10272 10276 10280 10284 10288 10292 
10296 10300 10304 10308 10312 10316 10320 10324 10328 
10332 10336 10340 10344 10348 10352 10356 10360 10364 
10368 10372 10376 10380 10384 10388 10392 10396 10400 
10404 10408 10412 10416 10420 10424 10428 10432 10436 
10440 10444 10448 10452 10456 10460 10464 10468 10472 
10476 10480 10484 10488 10492 10496 10500 10504 10508 
10512 10516 10520 10524 10528 10532 10536 10540 10544 
10548 10552 10556 10560 10564 10568 10572 10576 10580 
10584 10588 10592 10596 10600 10604 10608 10612 10616 
10620 10624 10628 10632 10636 10640 10644 10648 10652 
10656 10660 10664 10668 10672 10676 10680 10684 10688 
10692 10696 10700 10704 10708 10712 10716 10720 10724 
10728 10732 10736 10740 10744 10748 10752 10756 10760 
10764 10768 10772 10776 10780 10784 10788 10792 10796 
10800 10804 10808 10812 10816 10820 10824 10828 10832 
10836 10840 10844 10848 10852 10856 10860 10864 10868 
10872 10876 10880 10884 10888 10892 10896 10900 10904 
10908 10912 10916 10920 10924 10928 10932 10936 10940 
10944 10948 10952 10956 10960 10964 10968 10972 10976 
10980 10984 10988 10992 10996 11000 11004 11008 11012 
11016 11020 11024 11028 11032 11036 11040 11044 11048 
11052 11056 11060 11064 11068 11072 11076 11080 11084 
11088 11092 11096 11100 11104 11108 11112 11116 11120 
11124 11128 11132 11136 11140 11144 11148 11152 11156 
11160 11164 11168 11172 11176 11180 11184 11188 11192 
11196 11200 11204 11208 11212 11216 11220 11224 11228 
11232 11236 11240 11244 11248 11252 11256 11260 11264 
11268 11272 11276 11280 11284 11288 11292 11296 11300 
11304 11308 11312 11316 11320 11324 11328 11332 11336 
11340 11344 11348 11352 11356 11360 11364 11368 11372 
11376 11380 11384 11388 11392 11396 11400 11404 11408 
11412 11416 11420 11424 11428 11432 11436 11440 11444 
11448 11452 11456 11460 11464 11468 11472 11476 11480 
11484 11488 11492 11496 11500 11504 11508 11512 11516 
11520 11524 11528 11532 11536 11540 11544 11548 11552 
11556 11560 11564 11568 11572 11576 11580 11584 11588 
11592 11596 11600 11604 11608 11612 11616 11620 11624 
11628 11632 11636 11640 11644 11648 11652 11656 11660 
11664 11668 11672 11676 11680 11684 11688 11692 11696 
11700 11704 11708 11712 11716 11720 11724 11728 11732 
11736 11740 11744 11748 11752 11756 11760 11764 11768 
11772 11776 11780 11784 11788 11792 11796 11800 11804 
11808 11812 11816 11820 11824 11828 11832 11836 11840 
11844 11848 11852 11856 11860 11864 11868 11872 11876 
11880 11884 11888 11892 11896 11900 11904 11908 11912 
11916 11920 11924 11928 11932 11936 11940 11944 11948 
11952 11956 11960 11964 11968 11972 11976 11980 11984 
11988 11992 11996 12000 12004 12008 12012 12016 12020 
12024 12028 12032 12036 12040 12044 12048 12052 12056 
12060 12064 12068 12072 12076 12080 12084 12088 12092 
12096 12100 12104 12108 12112 12116 12120 12124 12128 
12132 12136 12140 12144 12148 12152 12156 12160 12164 
12168 12172 12176 12180 12184 12188 12192 12196 12200 
12204 12208 12212 12216 12220 12224 12228 12232 12236 
12240 12244 12248 12252 12256 12260 12264 12268 12272 
12276 12280 12284 12288 12292 12296 12300 12304 12308 
12312 12316 12320 12324 12328 12332 12336 12340 12344 
12348 12352 12356 12360 12364 12368 12372 12376 12380 
12384 12388 12392 12396 12400 12404 12408 12412 12416 
12420 12424 12428 12432 12436 12440 12444 12448 12452 
12456 12460 12464 12468 12472 12476 12480 12484 12488 
12492 12496 12500 12504 12508 12512 12516 12520 12524 
12528 12532 12536 12540 12544 12548 12552 12556 12560 
12564 12568 12572 12576 12580 12584 12588 12592 12596 
12600 12604 12608 12612 12616 12620 12624 12628 12632 
12636 12640 12644 12648 12652 12656 12660 12664 12668 
12672 12676 12680 12684 12688 12692 12696 12700 12704 
12708 12712 12716 12720 12724 12728 12732 12736 12740 
12744 12748 12752 12756 12760 12764 12768 12772 12776 
12780 12784 12788 12792 12796 12800 12804 12808 12812 
12816 12820 12824 12828 12832 12836 12840 12844 12848 
12852 12856 12860 12864 12868 12872 12876 12880 12884 
12888 12892 12896 12900 12904 12908 12912 12916 12920 
12924 12928 12932 12936 12940 12944 12948 12952 12956 
12960 12964 12968 12972 12976 12980 12984 12988 12992 
12996 13000 13004 13008 13012 13016 13020 13024 13028 
13032 13036 13040 13044 13048 13052 13056 13060 13064 
13068 13072 13076 13080 13084 13088 13092 13096 13100 
13104 13108 13112 13116 13120 13124 13128 13132 13136 
13140 13144 13148 13152 13156 13160 13164 13168 13172 
13176 13180 13184 13188 13192 13196 13200 13204 13208 
13212 13216 13220 13224 13228 13232 13236 13240 13244 
13248 13252 13256 13260 13264 13268 13272 13276 13280 
13284 13288 13292 13296 13300 13304 13308 13312 13316 
13320 13324 13328 13332 13336 13340 13344 13348 13352 
13356 13360 13364 13368 13372 13376 13380 13384 13388 
13392 13396 13400 13404 13408 13412 13416 13420 13424 
13428 13432 13436 13440 13444 13448 13452 13456 13460 
13464 13468 13472 13476 13480 13484 13488 13492 13496 
13500 13504 13508 13512 13516 13520 13524 13528 13532 
13536 13540 13544 13548 13552 13556 13560 13564 13568 
13572 13576 13580 13584 13588 13592 13596 13600 13604 
13608 13612 13616 13620 13624 13628 13632 13636 13640 
13644 13648 13652 13656 13660 13664 13668 13672 13676 
13680 13684 13688 13692 13696 13700 13704 13708 13712 
13716 13720 13724 13728 13732 13736 13740 13744 13748 
13752 13756 13760 13764 13768 13772 13776 13780 13784 
13788 13792 13796 13800 13804 13808 13812 13816 13820 
13824 13828 13832 13836 13840 13844 13848 13852 13856 
13860 13864 13868 13872 13876 13880 13884 13888 13892 
13896 13900 13904 13908 13912 13916 13920 13924 13928 
13932 13936 13940 13944 13948 13952 13956 13960 13964 
13968 13972 13976 13980 13984 13988 13992 13996 14000 
14004 14008 14012 14016 14020 14024 14028 14032 14036 
14040 14044 14048 14052 14056 14060 14064 14068 14072 
14076 14080 14084 14088 14092 14096 14100 14104 14108 
14112 14116 14120 14124 14128 14132 14136 14140 14144 
14148 14152 14156 14160 14164 14168 14172 14176 14180 
14184 14188 14192 14196 14200 14204 14208 14212 14216 
14220 14224 14228 14232 14236 14240 14244 14248 14252 
14256 14260 14264 14268 14272 14276 14280 14284 14288 
14292 14296 14300 14304 14308 14312 14316 14320 14324 
14328 14332 14336 14340 14344 14348 14352 14356 14360 
14364 14368 14372 14376 14380 14384 14388 14392 14396 
14400 14404 14408 14412 14416 14420 14424 14428 14432 
14436 14440 14444 14448 14452 14456 14460 14464 14468 
14472 14476 14480 14484 14488 14492 14496 14500 14504 
14508 14512 14516 14520 14524 14528 14532 14536 14540 
14544 14548 14552 14556 14560 14564 14568 14572 14576 
14580 14584 14588 14592 14596 14600 14604 14608 14612 
14616 14620 14624 14628 14632 14636 14640 14644 14648 
14652 14656 14660 14664 14668 14672 14676 14680 14684 
14688 14692 14696 14700 14704 14708 14712 14716 14720 
14724 14728 14732 14736 14740 14744 14748 14752 14756 
14760 14764 14768 14772 14776 14780 14784 14788 14792 
14796 14800 14804 14808 14812 14816 14820 14824 14828 
14832 14836 14840 14844 14848 14852 14856 14860 14864 
14868 14872 14876 14880 14884 14888 14892 14896 14900 
14904 14908 14912 14916 14920 14924 14928 14932 14936 
14940 14944 14948 14952 14956 14960 14964 14968 14972 
14976 14980 14984 14988 14992 14996 15000 15004 15008 
15012 15016 15020 15024 15028 15032 15036 15040 15044 
15048 15052 15056 15060 15064 15068 15072 15076 15080 
15084 15088 15092 15096 15100 15104 15108 15112 15116 
15120 15124 15128 15132 15136 15140 15144 15148 15152 
15156 15160 15164 15168 15172 15176 15180 15184 15188 
15192 15196 15200 15204 15208 15212 15216 15220 15224 
15228 15232 15236 15240 15244 15248 15252 15256 15260 
15264 15268 15272 15276 15280 15284 15288 15292 15296 
15300 15304 15308 15312 15316 15320 15324 15328 15332 
15336 15340 15344 15348 15352 15356 15360 15364 15368 
15372 15376 15380 15384 15388 15392 15396 15400 15404 
15408 15412 15416 15420 15424 15428 15432 15436 15440 
15444 15448 15452 15456 15460 15464 15468 15472 15476 
15480 15484 15488 15492 15496 15500 15504 15508 15512 
15516 15520 15524 15528 15532 15536 15540 15544 15548 
15552 15556 15560 15564 15568 15572 15576 15580 15584 
15588 15592 15596 15600 15604 15608 15612 15616 15620 
15624 15628 15632 15636 15640 15644 15648 15652 15656 
15660 15664 15668 15672 15676 15680 15684 15688 15692 
15696 15700 15704 15708 15712 15716 15720 15724 15728 
15732 15736 15740 15744 15748 15752 15756 15760 15764 
15768 15772 15776 15780 15784 15788 15792 15796 15800 
15804 15808 15812 15816 15820 15824 15828 15832 15836 
15840 15844 15848 15852 15856 15860 15864 15868 15872 
15876 15880 15884 15888 15892 15896 15900 15904 15908 
15912 15916 15920 15924 15928 15932 15936 15940 15944 
15948 15952 15956 15960 15964 15968 15972 15976 15980 
15984 15988 15992 15996 16000 16004 16008 16012 16016 
16020 16024 16028 16032 16036 16040 16044 16048 16052 
16056 16060 16064 16068 16072 16076 16080 16084 16088 
16092 16096 16100 16104 16108 16112 16116 16120 16124 
16128 16132 16136 16140 16144 16148 16152 16156 16160 
16164 16168 16172 16176 16180 16184 16188 16192 16196 
16200 16204 16208 16212 16216 16220 16224 16228 16232 
16236 16240 16244 16248 16252 16256 16260 16264 16268 
16272 16276 16280 16284 16288 16292 16296 16300 16304 
16308 16312 16316 16320 16324 16328 16332 16336 16340 
16344 16348 16352 16356 16360 16364 16368 16372 16376 
16380 16384 16388 16392 16396 16400 16404 16408 16412 
16416 16420 16424 16428 16432 16436 16440 16444 16448 
16452 16456 16460 16464 16468 16472 16476 16480 16484 
16488 16492 16496 16500 16504 16508 16512 16516 16520 
16524 16528 16532 16536 16540 16544 16548 16552 16556 
16560 16564 16568 16572 16576 16580 16584 16588 16592 
16596 16600 16604 16608 16612 16616 16620 16624 16628 
16632 16636 16640 16644 16648 16652 16656 16660 16664 
16668 16672 16676 16680 16684 16688 16692 16696 16700 
16704 16708 16712 16716 16720 16724 16728 16732 16736 
16740 16744 16748 16752 16756 16760 16764 16768 16772 
16776 16780 16784 16788 16792 16796 16800 16804 16808 
16812 16816 16820 16824 16828 16832 16836 16840 16844 
16848 16852 16856 16860 16864 16868 16872 16876 16880 
16884 16888 16892 16896 16900 16904 16908 16912 16916 
16920 16924 16928 16932 16936 16940 16944 16948 16952 
16956 16960 16964 16968 16972 16976 16980 16984 16988 
16992 16996 17000 17004 17008 17012 17016 17020 17024 
17028 17032 17036 17040 17044 17048 17052 17056 17060 
17064 17068 17072 17076 17080 17084 17088 17092 17096 
17100 17104 17108 17112 17116 17120 17124 17128 17132 
17136 17140 17144 17148 17152 17156 17160 17164 17168 
17172 17176 17180 17184 17188 17192 17196 17200 17204 
17208 17212 17216 17220 17224 17228 17232 17236 17240 
17244 17248 17252 17256 17260 17264 17268 17272 17276 
17280 17284 17288 17292 17296 17300 17304 17308 17312 
17316 17320 17324 17328 17332 17336 17340 17344 17348 
17352 17356 17360 17364 17368 17372 17376 17380 17384 
17388 17392 17396 17400 17404 17408 17412 17416 17420 
17424 17428 17432 17436 17440 17444 17448 17452 17456 
17460 17464 17468 17472 17476 17480 17484 17488 17492 
17496 17500 17504 17508 17512 17516 17520 17524 17528 
17532 17536 17540 17544 17548 17552 17556 17560 17564 
17568 17572 17576 17580 17584 17588 17592 17596 17600 
17604 17608 17612 17616 17620 17624 17628 17632 17636 
17640 17644 17648 17652 17656 17660 17664 17668 17672 
17676 17680 17684 17688 17692 17696 17700 17704 17708 
17712 17716 17720 17724 17728 17732 17736 17740 17744 
17748 17752 17756 17760 17764 17768 17772 17776 17780 
17784 17788 17792 17796 17800 17804 17808 17812 17816 
17820 17824 17828 17832 17836 17840 17844 17848 17852 
17856 17860 17864 17868 17872 17876 17880 17884 17888 
17892 17896 17900 17904 17908 17912 17916 17920 17924 
17928 17932 17936 17940 17944 17948 17952 17956 17960 
17964 17968 17972 17976 17980 17984 17988 17992 17996 
18000 18004 18008 18012 18016 18020 18024 18028 18032 
18036 18040 18044 18048 18052 18056 18060 18064 18068 
18072 18076 18080 18084 18088 18092 18096 18100 18104 
18108 18112 18116 18120 18124 18128 18132 18136 18140 
18144 18148 18152 18156 18160 18164 18168 18172 18176 
18180 18184 18188 18192 18196 18200 18204 18208 18212 
18216 18220 18224 18228 18232 18236 18240 18244 18248 
18252 18256 18260 18264 18268 18272 18276 18280 18284 
18288 18292 18296 18300 18304 18308 18312 18316 18320 
18324 18328 18332 18336 18340 18344 18348 18352 18356 
18360 18364 18368 18372 18376 18380 18384 18388 18392 
18396 18400 18404 18408 18412 18416 18420 18424 18428 
18432 18436 18440 18444 18448 18452 18456 18460 18464 
18468 18472 18476 18480 18484 18488 18492 18496 18500 
18504 18508 18512 18516 18520 18524 18528 18532 18536 
18540 18544 18548 18552 18556 18560 18564 18568 18572 
18576 18580 18584 18588 18592 18596 18600 18604 18608 
18612 18616 18620 18624 18628 18632 18636 18640 18644 
18648 18652 18656 18660 18664 18668 18672 18676 18680 
18684 18688 18692 18696 18700 18704 18708 18712 18716 
18720 18724 18728 18732 18736 18740 18744 18748 18752 
18756 18760 18764 18768 18772 18776 18780 18784 18788 
18792 18796 18800 18804 18808 18812 18816 18820 18824 
18828 18832 18836 18840 18844 18848 18852 18856 18860 
18864 18868 18872 18876 18880 18884 18888 18892 18896 
18900 18904 18908 18912 18916 18920 18924 18928 18932 
18936 18940 18944 18948 18952 18956 18960 18964 18968 
18972 18976 18980 18984 18988 18992 18996 19000 19004 
19008 19012 19016 19020 19024 19028 19032 19036 19040 
19044 19048 19052 19056 19060 19064 19068 19072 19076 
19080 19084 19088 19092 19096 19100 19104 19108 19112 
19116 19120 19124 19128 19132 19136 19140 19144 19148 
19152 19156 19160 19164 19168 19172 19176 19180 19184 
19188 19192 19196 19200 19204 19208 19212 19216 19220 
19224 19228 19232 19236 19240 19244 19248 19252 19256 
19260 19264 19268 19272 19276 19280 19284 19288 19292 
19296 19300 19304 19308 19312 19316 19320 19324 19328 
19332 19336 19340 19344 19348 19352 19356 19360 19364 
19368 19372 19376 19380 19384 19388 19392 19396 19400 
19404 19408 19412 19416 19420 19424 19428 19432 19436 
19440 19444 19448 19452 19456 19460 19464 19468 19472 
19476 19480 19484 19488 19492 19496 19500 19504 19508 
19512 19516 19520 19524 19528 19532 19536 19540 19544 
19548 19552 19556 19560 19564 19568 19572 19576 19580 
19584 19588 19592 19596 19600 19604 19608 19612 19616 
19620 19624 19628 19632 19636 19640 19644 19648 19652 
19656 19660 19664 19668 19672 19676 19680 19684 19688 
19692 19696 19700 19704 19708 19712 19716 19720 19724 
19728 19732 19736 19740 19744 19748 19752 19756 19760 
19764 19768 19772 19776 19780 19784 19788 19792 19796 
19800 19804 19808 19812 19816 19820 19824 19828 19832 
19836 19840 19844 19848 19852 19856 19860 19864 19868 
19872 19876 19880 19884 19888 19892 19896 19900 19904 
19908 19912 19916 19920 19924 19928 19932 19936 19940 
19944 19948 19952 19956 19960 19964 19968 19972 19976 
19980 19984 19988 19992 19996 20000 20004 20008 20012 
20016 20020 20024 20028 20032 20036 20040 20044 20048 
20052 20056 20060 20064 20068 20072 20076 20080 20084 
20088 20092 20096 20100 20104 20108 20112 20116 20120 
20124 20128 20132 20136 20140 20144 20148 20152 20156 
20160 20164 20168 20172 20176 20180 20184 20188 20192 
20196 20200 20204 20208 20212 20216 20220 20224 20228 
20232 20236 20240 20244 20248 20252 20256 20260 20264 
20268 20272 20276 20280 20284 20288 20292 20296 20300 
20304 20308 20312 20316 20320 20324 20328 20332 20336 
20340 20344 20348 20352 20356 20360 20364 20368 20372 
20376 20380 20384 20388 20392 20396 20400 20404 20408 
20412 20416 20420 20424 20428 20432 20436 20440 20444 
20448 20452 20456 20460 20464 20468 20472 20476 20480 
20484 20488 20492 20496 20500 20504 20508 20512 20516 
20520 20524 20528 20532 20536 20540 20544 20548 20552 
20556 20560 20564 20568 20572 20576 20580 20584 20588 
20592 20596 20600 20604 20608 20612 20616 20620 20624 
20628 20632 20636 20640 20644 20648 20652 20656 20660 
20664 20668 20672 20676 20680 20684 20688 20692 20696 
20700 20704 20708 20712 20716 20720 20724 20728 20732 
20736 20740 20744 20748 20752 20756 20760 20764 20768 
20772 20776 20780 20784 20788 20792 20796 20800 20804 
20808 20812 20816 20820 20824 20828 20832 20836 20840 
20844 20848 20852 20856 20860 20864 20868 20872 20876 
20880 20884 20888 20892 20896 20900 20904 20908 20912 
20916 20920 20924 20928 20932 20936 20940 20944 20948 
20952 20956 20960 20964 20968 20972 20976 20980 20984 
20988 20992 20996 21000 21004 21008 21012 21016 21020 
21024 21028 21032 21036 21040 21044 21048 21052 21056 
21060 21064 21068 21072 21076 21080 21084 21088 21092 
21096 21100 21104 21108 21112 21116 21120 21124 21128 
21132 21136 21140 21144 21148 21152 21156 21160 21164 
21168 21172 21176 21180 21184 21188 21192 21196 21200 
21204 21208 21212 21216 21220 21224 21228 21232 21236 
21240 21244 21248 21252 21256 21260 21264 21268 21272 
21276 21280 21284 21288 21292 21296 21300 21304 21308 
21312 21316 21320 21324 21328 21332 21336 21340 21344 
21348 21352 21356 21360 21364 21368 21372 21376 21380 
21384 21388 21392 21396 21400 21404 21408 21412 21416 
21420 21424 21428 21432 21436 21440 21444 21448 21452 
21456 21460 21464 21468 21472 21476 21480 21484 21488 
21492 21496 21500 21504 21508 21512 21516 21520 21524 
21528 21532 21536 21540 21544 21548 21552 21556 21560 
21564 21568 21572 21576 21580 21584 21588 21592 21596 
21600 21604 21608 21612 21616 21620 21624 21628 21632 
21636 21640 21644 21648 21652 21656 21660 21664 21668 
21672 21676 21680 21684 21688 21692 21696 21700 21704 
21708 21712 21716 21720 21724 21728 21732 21736 21740 
21744 21748 21752 21756 21760 21764 21768 21772 21776 
21780 21784 21788 21792 21796 21800 21804 21808 21812 
21816 21820 21824 21828 21832 21836 21840 21844 21848 
21852 21856 21860 21864 21868 21872 21876 21880 21884 
21888 21892 21896 21900 21904 21908 21912 21916 21920 
21924 21928 21932 21936 21940 21944 21948 21952 21956 
21960 21964 21968 21972 21976 21980 21984 21988 21992 
21996 22000 22004 22008 22012 22016 22020 22024 22028 
22032 22036 22040 22044 22048 22052 22056 22060 22064 
22068 22072 22076 22080 22084 22088 22092 22096 22100 
22104 22108 22112 22116 22120 22124 22128 22132 22136 
22140 22144 22148 22152 22156 22160 22164 22168 22172 
22176 22180 22184 22188 22192 22196 22200 22204 22208 
22212 22216 22220 22224 22228 22232 22236 22240 22244 
22248 22252 22256 22260 22264 22268 22272 22276 22280 
22284 22288 22292 22296 22300 22304 22308 22312 22316 
22320 22324 22328 22332 22336 22340 22344 22348 22352 
22356 22360 22364 22368 22372 22376 22380 22384 22388 
22392 22396 22400 22404 22408 22412 22416 22420 22424 
22428 22432 22436 22440 22444 22448 22452 22456 22460 
22464 22468 22472 22476 22480 22484 22488 22492 22496 
22500 22504 22508 22512 22516 22520 22524 22528 22532 
22536 22540 22544 22548 22552 22556 22560 22564 22568 
22572 22576 22580 22584 22588 22592 22596 22600 22604 
22608 22612 22616 22620 22624 22628 22632 22636 22640 
22644 22648 22652 22656 22660 22664 22668 22672 22676 
22680 22684 22688 22692 22696 22700 22704 22708 22712 
22716 22720 22724 22728 22732 22736 22740 22744 22748 
22752 22756 22760 22764 22768 22772 22776 22780 22784 
22788 22792 22796 22800 22804 22808 22812 22816 22820 
22824 22828 22832 22836 22840 22844 22848 22852 22856 
22860 22864 22868 22872 22876 22880 22884 22888 22892 
22896 22900 22904 22908 22912 22916 22920 22924 22928 
22932 22936 22940 22944 22948 22952 22956 22960 22964 
22968 22972 22976 22980 22984 22988 22992 22996 23000 
23004 23008 23012 23016 23020 23024 23028 23032 23036 
23040 23044 23048 23052 23056 23060 23064 23068 23072 
23076 23080 23084 23088 23092 23096 23100 23104 23108 
23112 23116 23120 23124 23128 23132 23136 23140 23144 
23148 23152 23156 23160 23164 23168 23172 23176 23180 
23184 23188 23192 23196 23200 23204 23208 23212 23216 
23220 23224 23228 23232 23236 23240 23244 23248 23252 
23256 23260 23264 23268 23272 23276 23280 23284 23288 
23292 23296 23300 23304 23308 23312 23316 23320 23324 
23328 23332 23336 23340 23344 23348 23352 23356 23360 
23364 23368 23372 23376 23380 23384 23388 23392 23396 
23400 23404 23408 23412 23416 23420 23424 23428 23432 
23436 23440 23444 23448 23452 23456 23460 23464 23468 
23472 23476 23480 23484 23488 23492 23496 23500 23504 
23508 23512 23516 23520 23524 23528 23532 23536 23540 
23544 23548 23552 23556 23560 23564 23568 23572 23576 
23580 23584 23588 23592 23596 23600 23604 23608 23612 
23616 23620 23624 23628 23632 23636 23640 23644 23648 
23652 23656 23660 23664 23668 23672 23676 23680 23684 
23688 23692 23696 23700 23704 23708 23712 23716 23720 
23724 23728 23732 23736 23740 23744 23748 23752 23756 
23760 23764 23768 23772 23776 23780 23784 23788 23792 
23796 23800 23804 23808 23812 23816 23820 23824 23828 
23832 23836 23840 23844 23848 23852 23856 23860 23864 
23868 23872 23876 23880 23884 23888 23892 23896 23900 
23904 23908 23912 23916 23920 23924 23928 23932 23936 
23940 23944 23948 23952 23956 23960 23964 23968 23972 
23976 23980 23984 23988 23992 23996 24000 24004 24008 
24012 24016 24020 24024 24028 24032 24036 24040 24044 
24048 24052 24056 24060 24064 24068 24072 24076 24080 
24084 24088 24092 24096 24100 24104 24108 24112 24116 
24120 24124 24128 24132 24136 24140 24144 24148 24152 
24156 24160 24164 24168 24172 24176 24180 24184 24188 
24192 24196 24200 24204 24208 24212 24216 24220 24224 
24228 24232 24236 24240 24244 24248 24252 24256 24260 
24264 24268 24272 24276 24280 24284 24288 24292 24296 
24300 24304 24308 24312 24316 24320 24324 24328 24332 
24336 24340 24344 24348 24352 24356 24360 24364 24368 
24372 24376 24380 24384 24388 24392 24396 24400 24404 
24408 24412 24416 24420 24424 24428 24432 24436 24440 
24444 24448 24452 24456 24460 24464 24468 24472 24476 
24480 24484 24488 24492 24496 24500 24504 24508 24512 
24516 24520 24524 24528 24532 24536 24540 24544 24548 
24552 24556 24560 24564 24568 24572 24576 24580 24584 
24588 24592 24596 24600 24604 24608 24612 24616 24620 
24624 24628 24632 24636 24640 24644 24648 24652 24656 
24660 24664 24668 24672 24676 24680 24684 24688 24692 
24696 24700 24704 24708 24712 24716 24720 24724 24728 
24732 24736 24740 24744 24748 24752 24756 24760 24764 
24768 24772 24776 24780 24784 24788 24792 24796 24800 
24804 24808 24812 24816 24820 24824 24828 24832 24836 
24840 24844 24848 24852 24856 24860 24864 24868 24872 
24876 24880 24884 24888 24892 24896 24900 24904 24908 
24912 24916 24920 24924 24928 24932 24936 24940 24944 
24948 24952 24956 24960 24964 24968 24972 24976 24980 
24984 24988 24992 24996 25000 25004 25008 25012 25016 
25020 25024 25028 25032 25036 25040 25044 25048 25052 
25056 25060 25064 25068 25072 25076 25080 25084 25088 
25092 25096 25100 25104 25108 25112 25116 25120 25124 
25128 25132 25136 25140 25144 25148 25152 25156 25160 
25164 25168 25172 25176 25180 25184 25188 25192 25196 
25200 25204 25208 25212 25216 25220 25224 25228 25232 
25236 25240 25244 25248 25252 25256 25260 25264 25268 
25272 25276 25280 25284 25288 25292 25296 25300 25304 
25308 25312 25316 25320 25324 25328 25332 25336 25340 
25344 25348 25352 25356 25360 25364 25368 25372 25376 
25380 25384 25388 25392 25396 25400 25404 25408 25412 
25416 25420 25424 25428 25432 25436 25440 25444 25448 
25452 25456 25460 25464 25468 25472 25476 25480 25484 
25488 25492 25496 25500 25504 25508 25512 25516 25520 
25524 25528 25532 25536 25540 25544 25548 25552 25556 
25560 25564 25568 25572 25576 25580 25584 25588 25592 
25596 25600 25604 25608 25612 25616 25620 25624 25628 
25632 25636 25640 25644 25648 25652 25656 25660 25664 
25668 25672 25676 25680 25684 25688 25692 25696 25700 
25704 25708 25712 25716 25720 25724 25728 25732 25736 
25740 25744 25748 25752 25756 25760 25764 25768 25772 
25776 25780 25784 25788 25792 25796 25800 25804 25808 
25812 25816 25820 25824 25828 25832 25836 25840 25844 
25848 25852 25856 25860 25864 25868 25872 25876 25880 
25884 25888 25892 25896 25900 25904 25908 25912 25916 
25920 25924 25928 25932 25936 25940 25944 25948 25952 
25956 25960 25964 25968 25972 25976 25980 25984 25988 
25992 25996 26000 26004 26008 26012 26016 26020 26024 
26028 26032 26036 26040 26044 26048 26052 26056 26060 
26064 26068 26072 26076 26080 26084 26088 26092 26096 
26100 26104 26108 26112 26116 26120 26124 26128 26132 
26136 26140 26144 26148 26152 26156 26160 26164 26168 
26172 26176 26180 26184 26188 26192 26196 26200 26204 
26208 26212 26216 26220 26224 26228 26232 26236 26240 
26244 26248 26252 26256 26260 26264 26268 26272 26276 
26280 26284 26288 26292 26296 26300 26304 26308 26312 
26316 26320 26324 26328 26332 26336 26340 26344 26348 
26352 26356 26360 26364 26368 26372 26376 26380 26384 
26388 26392 26396 26400 26404 26408 26412 26416 26420 
26424 26428 26432 26436 26440 26444 26448 26452 26456 
26460 26464 26468 26472 26476 26480 26484 26488 26492 
26496 26500 26504 26508 26512 26516 26520 26524 26528 
26532 26536 26540 26544 26548 26552 26556 26560 26564 
26568 26572 26576 26580 26584 26588 26592 26596 26600 
26604 26608 26612 26616 26620 26624 26628 26632 26636 
26640 26644 26648 26652 26656 26660 26664 26668 26672 
26676 26680 26684 26688 26692 26696 26700 26704 26708 
26712 26716 26720 26724 26728 26732 26736 26740 26744 
26748 26752 26756 26760 26764 26768 26772 26776 26780 
26784 26788 26792 26796 26800 26804 26808 26812 26816 
26820 26824 26828 26832 26836 26840 26844 26848 26852 
26856 26860 26864 26868 26872 26876 26880 26884 26888 
26892 26896 26900 26904 26908 26912 26916 26920 26924 
26928 26932 26936 26940 26944 26948 26952 26956 26960 
26964 26968 26972 26976 26980 26984 26988 26992 26996 
27000 27004 27008 27012 27016 27020 27024 27028 27032 
27036 27040 27044 27048 27052 27056 27060 27064 27068 
27072 27076 27080 27084 27088 27092 27096 27100 27104 
27108 27112 27116 27120 27124 27128 27132 27136 27140 
27144 27148 27152 27156 27160 27164 27168 27172 27176 
27180 27184 27188 27192 27196 27200 27204 27208 27212 
27216 27220 27224 27228 27232 27236 27240 27244 27248 
27252 27256 27260 27264 27268 27272 27276 27280 27284 
27288 27292 27296 27300 27304 27308 27312 27316 27320 
27324 27328 27332 27336 27340 27344 27348 27352 27356 
27360 27364 27368 27372 27376 27380 27384 27388 27392 
27396 27400 27404 27408 27412 27416 27420 27424 27428 
27432 27436 27440 27444 27448 27452 27456 27460 27464 
27468 27472 27476 27480 27484 27488 27492 27496 27500 
27504 27508 27512 27516 27520 27524 27528 27532 27536 
27540 27544 27548 27552 27556 27560 27564 27568 27572 
27576 27580 27584 27588 27592 27596 27600 27604 27608 
27612 27616 27620 27624 27628 27632 27636 27640 27644 
27648 27652 27656 27660 27664 27668 27672 27676 27680 
27684 27688 27692 27696 27700 27704 27708 27712 27716 
27720 27724 27728 27732 27736 27740 27744 27748 27752 
27756 27760 27764 27768 27772 27776 27780 27784 27788 
27792 27796 27800 27804 27808 27812 27816 27820 27824 
27828 27832 27836 27840 27844 27848 27852 27856 27860 
27864 27868 27872 27876 27880 27884 27888 27892 27896 
27900 27904 27908 27912 27916 27920 27924 27928 27932 
27936 27940 27944 27948 27952 27956 27960 27964 27968 
27972 27976 27980 27984 27988 27992 27996 28000 28004 
28008 28012 28016 28020 28024 28028 28032 28036 28040 
28044 28048 28052 28056 28060 28064 28068 28072 28076 
28080 28084 28088 28092 28096 28100 28104 28108 28112 
28116 28120 28124 28128 28132 28136 28140 28144 28148 
28152 28156 28160 28164 28168 28172 28176 28180 28184 
28188 28192 28196 28200 28204 28208 28212 28216 28220 
28224 28228 28232 28236 28240 28244 28248 28252 28256 
28260 28264 28268 28272 28276 28280 28284 28288 28292 
28296 28300 28304 28308 28312 28316 28320 28324 28328 
28332 28336 28340 28344 28348 28352 28356 28360 28364 
28368 28372 28376 28380 28384 28388 28392 28396 28400 
28404 28408 28412 28416 28420 28424 28428 28432 28436 
28440 28444 28448 28452 28456 28460 28464 28468 28472 
28476 28480 28484 28488 28492 28496 28500 28504 28508 
28512 28516 28520 28524 28528 28532 28536 28540 28544 
28548 28552 28556 28560 28564 28568 28572 28576 28580 
28584 28588 28592 28596 28600 28604 28608 28612 28616 
28620 28624 28628 28632 28636 28640 28644 28648 28652 
28656 28660 28664 28668 28672 28676 28680 28684 28688 
28692 28696 28700 28704 28708 28712 28716 28720 28724 
28728 28732 28736 28740 28744 28748 28752 28756 28760 
28764 28768 28772 28776 28780 28784 28788 28792 28796 
28800 28804 28808 28812 28816 28820 28824 28828 28832 
28836 28840 28844 28848 28852 28856 28860 28864 28868 
28872 28876 28880 28884 28888 28892 28896 28900 28904 
28908 28912 28916 28920 28924 28928 28932 28936 28940 
28944 28948 28952 28956 28960 28964 28968 28972 28976 
28980 28984 28988 28992 28996 29000 29004 29008 29012 
29016 29020 29024 29028 29032 29036 29040 29044 29048 
29052 29056 29060 29064 29068 29072 29076 29080 29084 
29088 29092 29096 29100 29104 29108 29112 29116 29120 
29124 29128 29132 29136 29140 29144 29148 29152 29156 
29160 29164 29168 29172 29176 29180 29184 29188 29192 
29196 29200 29204 29208 29212 29216 29220 29224 29228 
29232 29236 29240 29244 29248 29252 29256 29260 29264 
29268 29272 29276 29280 29284 29288 29292 29296 29300 
29304 29308 29312 29316 29320 29324 29328 29332 29336 
29340 29344 29348 29352 29356 29360 29364 29368 29372 
29376 29380 29384 29388 29392 29396 29400 29404 29408 
29412 29416 29420 29424 29428 29432 29436 29440 29444 
29448 29452 29456 29460 29464 29468 29472 29476 29480 
29484 29488 29492 29496 29500 29504 29508 29512 29516 
29520 29524 29528 29532 29536 29540 29544 29548 29552 
29556 29560 29564 29568 29572 29576 29580 29584 29588 
29592 29596 29600 29604 29608 29612 29616 29620 29624 
29628 29632 29636 29640 29644 29648 29652 29656 29660 
29664 29668 29672 29676 29680 29684 29688 29692 29696 
29700 29704 29708 29712 29716 29720 29724 29728 29732 
29736 29740 29744 29748 29752 29756 29760 29764 29768 
29772 29776 29780 29784 29788 29792 29796 29800 29804 
29808 29812 29816 29820 29824 29828 29832 29836 29840 
29844 29848 29852 29856 29860 29864 29868 29872 29876 
29880 29884 29888 29892 29896 29900 29904 29908 29912 
29916 29920 29924 29928 29932 29936 29940 29944 29948 
29952 29956 29960 29964 29968 29972 29976 29980 29984 
29988 29992 29996 30000 30004 30008 30012 30016 30020 
30024 30028 30032 30036 30040 30044 30048 30052 30056 
30060 30064 30068 30072 30076 30080 30084 30088 30092 
30096 30100 30104 30108 30112 30116 30120 30124 30128 
30132 30136 30140 30144 30148 30152 30156 30160 30164 
30168 30172 30176 30180 30184 30188 30192 30196 30200 
30204 30208 30212 30216 30220 30224 30228 30232 30236 
30240 30244 30248 30252 30256 30260 30264 30268 30272 
30276 30280 30284 30288 30292 30296 30300 30304 30308 
30312 30316 30320 30324 30328 30332 30336 30340 30344 
30348 30352 30356 30360 30364 30368 30372 30376 30380 
30384 30388 30392 30396 30400 30404 30408 30412 30416 
30420 30424 30428 30432 30436 30440 30444 30448 30452 
30456 30460 30464 30468 30472 30476 30480 30484 30488 
30492 30496 30500 30504 30508 30512 30516 30520 30524 
30528 30532 30536 30540 30544 30548 30552 30556 30560 
30564 30568 30572 30576 30580 30584 30588 30592 30596 
30600 30604 30608 30612 30616 30620 30624 30628 30632 
30636 30640 30644 30648 30652 30656 30660 30664 30668 
30672 30676 30680 30684 30688 30692 30696 30700 30704 
30708 30712 30716 30720 30724 30728 30732 30736 30740 
30744 30748 30752 30756 30760 30764 30768 30772 30776 
30780 30784 30788 30792 30796 30800 30804 30808 30812 
30816 30820 30824 30828 30832 30836 30840 30844 30848 
30852 30856 30860 30864 30868 30872 30876 30880 30884 
30888 30892 30896 30900 30904 30908 30912 30916 30920 
30924 30928 30932 30936 30940 30944 30948 30952 30956 
30960 30964 30968 30972 30976 30980 30984 30988 30992 
30996 31000 31004 31008 31012 31016 31020 31024 31028 
31032 31036 31040 31044 31048 31052 31056 31060 31064 
31068 31072 31076 31080 31084 31088 31092 31096 31100 
31104 31108 31112 31116 31120 31124 31128 31132 31136 
31140 31144 31148 31152 31156 31160 31164 31168 31172 
31176 31180 31184 31188 31192 31196 31200 31204 31208 
31212 31216 31220 31224 31228 31232 31236 31240 31244 
31248 31252 31256 31260 31264 31268 31272 31276 31280 
31284 31288 31292 31296 31300 31304 31308 31312 31316 
31320 31324 31328 31332 31336 31340 31344 31348 31352 
31356 31360 31364 31368 31372 31376 31380 31384 31388 
31392 31396 31400 31404 31408 31412 31416 31420 31424 
31428 31432 31436 31440 31444 31448 31452 31456 31460 
31464 31468 31472 31476 31480 31484 31488 31492 31496 
31500 31504 31508 31512 31516 31520 31524 31528 31532 
31536 31540 31544 31548 31552 31556 31560 31564 31568 
31572 31576 31580 31584 31588 31592 31596 31600 31604 
31608 31612 31616 31620 31624 31628 31632 31636 31640 
31644 31648 31652 31656 31660 31664 31668 31672 31676 
31680 31684 31688 31692 31696 31700 31704 31708 31712 
31716 31720 31724 31728 31732 31736 31740 31744 31748 
31752 31756 31760 31764 31768 31772 31776 31780 31784 
31788 31792 31796 31800 31804 31808 31812 31816 31820 
31824 31828 31832 31836 31840 31844 31848 31852 31856 
31860 31864 31868 31872 31876 31880 31884 31888 31892 
31896 31900 31904 31908 31912 31916 31920 31924 31928 
31932 31936 31940 31944 31948 31952 31956 31960 31964 
31968 31972 31976 31980 31984 31988 31992 31996 32000 
32004 32008 32012 32016 32020 32024 32028 32032 32036 
32040 32044 32048 32052 32056 32060 32064 32068 32072 
32076 32080 32084 32088 32092 32096 32100 32104 32108 
32112 32116 32120 32124 32128 32132 32136 32140 32144 
32148 32152 32156 32160 32164 32168 32172 32176 32180 
32184 32188 32192 32196 32200 32204 32208 32212 32216 
32220 32224 32228 32232 32236 32240 32244 32248 32252 
32256 32260 32264 32268 32272 32276 32280 32284 32288 
32292 32296 32300 32304 32308 32312 32316 32320 32324 
32328 32332 32336 32340 32344 32348 32352 32356 32360 
32364 32368 32372 32376 32380 32384 32388 32392 32396 
32400 32404 32408 32412 32416 32420 32424 32428 32432 
32436 32440 32444 32448 32452 32456 32460 32464 32468 
32472 32476 32480 32484 32488 32492 32496 32500 32504 
32508 32512 32516 32520 32524 32528 32532 32536 32540 
32544 32548 32552 32556 32560 32564 32568 32572 32576 
32580 32584 32588 32592 32596 32600 32604 32608 32612 
32616 32620 32624 32628 32632 32636 32640 32644 32648 
32652 32656 32660 32664 32668 32672 32676 32680 32684 
32688 32692 32696 32700 32704 32708 32712 32716 32720 
32724 32728 32732 32736 32740 32744 32748 32752 32756 
32760 32764 32768 32772 32776 32780 32784 32788 32792 
32796 32800 32804 32808 32812 32816 32820 32824 32828 
32832 32836 32840 32844 32848 32852 32856 32860 32864 
32868 32872 32876 32880 32884 32888 32892 32896 32900 
32904 32908 32912 32916 32920 32924 32928 32932 32936 
32940 32944 32948 32952 32956 32960 32964 32968 32972 
32976 32980 32984 32988 32992 32996 33000 33004 33008 
33012 33016 33020 33024 33028 33032 33036 33040 33044 
33048 33052 33056 33060 33064 33068 33072 33076 33080 
33084 33088 33092 33096 33100 33104 33108 33112 33116 
33120 33124 33128 33132 33136 33140 33144 33148 33152 
33156 33160 33164 33168 33172 33176 33180 33184 33188 
33192 33196 33200 33204 33208 33212 33216 33220 33224 
33228 33232 33236 33240 33244 33248 33252 33256 33260 
33264 33268 33272 33276 33280 33284 33288 33292 33296 
33300 33304 33308 33312 33316 33320 33324 33328 33332 
33336 33340 33344 33348 33352 33356 33360 33364 33368 
33372 33376 33380 33384 33388 33392 33396 33400 33404 
33408 33412 33416 33420 33424 33428 33432 33436 33440 
33444 33448 33452 33456 33460 33464 33468 33472 33476 
33480 33484 33488 33492 33496 33500 33504 33508 33512 
33516 33520 33524 33528 33532 33536 33540 33544 33548 
33552 33556 33560 33564 33568 33572 33576 33580 33584 
33588 33592 33596 33600 33604 33608 33612 33616 33620 
33624 33628 33632 33636 33640 33644 33648 33652 33656 
33660 33664 33668 33672 33676 33680 33684 33688 33692 
33696 33700 33704 33708 33712 33716 33720 33724 33728 
33732 33736 33740 33744 33748 33752 33756 33760 33764 
33768 33772 33776 33780 33784 33788 33792 33796 33800 
33804 33808 33812 33816 33820 33824 33828 33832 33836 
33840 33844 33848 33852 33856 33860 33864 33868 33872 
33876 33880 33884 33888 33892 33896 33900 33904 33908 
33912 33916 33920 33924 33928 33932 33936 33940 33944 
33948 33952 33956 33960 33964 33968 33972 33976 33980 
33984 33988 33992 33996 34000 34004 34008 34012 34016 
34020 34024 34028 34032 34036 34040 34044 34048 34052 
34056 34060 34064 34068 34072 34076 34080 34084 34088 
34092 34096 34100 34104 34108 34112 34116 34120 34124 
34128 34132 34136 34140 34144 34148 34152 34156 34160 
34164 34168 34172 34176 34180 34184 34188 34192 34196 
34200 34204 34208 34212 34216 34220 34224 34228 34232 
34236 34240 34244 34248 34252 34256 34260 34264 34268 
34272 34276 34280 34284 34288 34292 34296 34300 34304 
34308 34312 34316 34320 34324 34328 34332 34336 34340 
34344 34348 34352 34356 34360 34364 34368 34372 34376 
34380 34384 34388 34392 34396 34400 34404 34408 34412 
34416 34420 34424 34428 34432 34436 34440 34444 34448 
34452 34456 34460 34464 34468 34472 34476 34480 34484 
34488 34492 34496 34500 34504 34508 34512 34516 34520 
34524 34528 34532 34536 34540 34544 34548 34552 34556 
34560 34564 34568 34572 34576 34580 34584 34588 34592 
34596 34600 34604 34608 34612 34616 34620 34624 34628 
34632 34636 34640 34644 34648 34652 34656 34660 34664 
34668 34672 34676 34680 34684 34688 34692 34696 34700 
34704 34708 34712 34716 34720 34724 34728 34732 34736 
34740 34744 34748 34752 34756 34760 34764 34768 34772 
34776 34780 34784 34788 34792 34796 34800 34804 34808 
34812 34816 34820 34824 34828 34832 34836 34840 34844 
34848 34852 34856 34860 34864 34868 34872 34876 34880 
34884 34888 34892 34896 34900 34904 34908 34912 34916 
34920 34924 34928 34932 34936 34940 34944 34948 34952 
34956 34960 34964 34968 34972 34976 34980 34984 34988 
34992 34996 35000 35004 35008 35012 35016 35020 35024 
35028 35032 35036 35040 35044 35048 35052 35056 35060 
35064 35068 35072 35076 35080 35084 35088 35092 35096 
35100 35104 35108 35112 35116 35120 35124 35128 35132 
35136 35140 35144 35148 35152 35156 35160 35164 35168 
35172 35176 35180 35184 35188 35192 35196 35200 35204 
35208 35212 35216 35220 35224 35228 35232 35236 35240 
35244 35248 35252 35256 35260 35264 35268 35272 35276 
35280 35284 35288 35292 35296 35300 35304 35308 35312 
35316 35320 35324 35328 35332 35336 35340 35344 35348 
35352 35356 35360 35364 35368 35372 35376 35380 35384 
35388 35392 35396 35400 35404 35408 35412 35416 35420 
35424 35428 35432 35436 35440 35444 35448 35452 35456 
35460 35464 35468 35472 35476 35480 35484 35488 35492 
35496 35500 35504 35508 35512 35516 35520 35524 35528 
35532 35536 35540 35544 35548 35552 35556 35560 35564 
35568 35572 35576 35580 35584 35588 35592 35596 35600 
35604 35608 35612 35616 35620 35624 35628 35632 35636 
35640 35644 35648 35652 35656 35660 35664 35668 35672 
35676 35680 35684 35688 35692 35696 35700 35704 35708 
35712 35716 35720 35724 35728 35732 35736 35740 35744 
35748 35752 35756 35760 35764 35768 35772 35776 35780 
35784 35788 35792 35796 35800 35804 35808 35812 35816 
35820 35824 35828 35832 35836 35840 35844 35848 35852 
35856 35860 35864 35868 35872 35876 35880 35884 35888 
35892 35896 35900 35904 35908 35912 35916 35920 35924 
35928 35932 35936 35940 35944 35948 35952 35956 35960 
35964 35968 35972 35976 35980 35984 35988 35992 35996 
36000 36004 36008 36012 36016 36020 36024 36028 36032 
36036 36040 36044 36048 36052 36056 36060 36064 36068 
36072 36076 36080 36084 36088 36092 36096 36100 36104 
36108 36112 36116 36120 36124 36128 36132 36136 36140 
36144 36148 36152 36156 36160 36164 36168 36172 36176 
36180 36184 36188 36192 36196 36200 36204 36208 36212 
36216 36220 36224 36228 36232 36236 36240 36244 36248 
36252 36256 36260 36264 36268 36272 36276 36280 36284 
36288 36292 36296 36300 36304 36308 36312 36316 36320 
36324 36328 36332 36336 36340 36344 36348 36352 36356 
36360 36364 36368 36372 36376 36380 36384 36388 36392 
36396 36400 36404 36408 36412 36416 36420 36424 36428 
36432 36436 36440 36444 36448 36452 36456 36460 36464 
36468 36472 36476 36480 36484 36488 36492 36496 36500 
36504 36508 36512 36516 36520 36524 36528 36532 36536 
36540 36544 36548 36552 36556 36560 36564 36568 36572 
36576 36580 36584 36588 36592 36596 36600 36604 36608 
36612 36616 36620 36624 36628 36632 36636 36640 36644 
36648 36652 36656 36660 36664 36668 36672 36676 36680 
36684 36688 36692 36696 36700 36704 36708 36712 36716 
36720 36724 36728 36732 36736 36740 36744 36748 36752 
36756 36760 36764 36768 36772 36776 36780 36784 36788 
36792 36796 36800 36804 36808 36812 36816 36820 36824 
36828 36832 36836 36840 36844 36848 36852 36856 36860 
36864 36868 36872 36876 36880 36884 36888 36892 36896 
36900 36904 36908 36912 36916 36920 36924 36928 36932 
36936 36940 36944 36948 36952 36956 36960 36964 36968 
36972 36976 36980 36984 36988 36992 36996 37000 37004 
37008 37012 37016 37020 37024 37028 37032 37036 37040 
37044 37048 37052 37056 37060 37064 37068 37072 37076 
37080 37084 37088 37092 37096 37100 37104 37108 37112 
37116 37120 37124 37128 37132 37136 37140 37144 37148 
37152 37156 37160 37164 37168 37172 37176 37180 37184 
37188 37192 37196 37200 37204 37208 37212 37216 37220 
37224 37228 37232 37236 37240 37244 37248 37252 37256 
37260 37264 37268 37272 37276 37280 37284 37288 37292 
37296 37300 37304 37308 37312 37316 37320 37324 37328 
37332 37336 37340 37344 37348 37352 37356 37360 37364 
37368 37372 37376 37380 37384 37388 37392 37396 37400 
37404 37408 37412 37416 37420 37424 37428 37432 37436 
37440 37444 37448 37452 37456 37460 37464 37468 37472 
37476 37480 37484 37488 37492 37496 37500 37504 37508 
37512 37516 37520 37524 37528 37532 37536 37540 37544 
37548 37552 37556 37560 37564 37568 37572 37576 37580 
37584 37588 37592 37596 37600 37604 37608 37612 37616 
37620 37624 37628 37632 37636 37640 37644 37648 37652 
37656 37660 37664 37668 37672 37676 37680 37684 37688 
37692 37696 37700 37704 37708 37712 37716 37720 37724 
37728 37732 37736 37740 37744 37748 37752 37756 37760 
37764 37768 37772 37776 37780 37784 37788 37792 37796 
37800 37804 37808 37812 37816 37820 37824 37828 37832 
37836 37840 37844 37848 37852 37856 37860 37864 37868 
37872 37876 37880 37884 37888 37892 37896 37900 37904 
37908 37912 37916 37920 37924 37928 37932 37936 37940 
37944 37948 37952 37956 37960 37964 37968 37972 37976 
37980 37984 37988 37992 37996 38000 38004 38008 38012 
38016 38020 38024 38028 38032 38036 38040 38044 38048 
38052 38056 38060 38064 38068 38072 38076 38080 38084 
38088 38092 38096 38100 38104 38108 38112 38116 38120 
38124 38128 38132 38136 38140 38144 38148 38152 38156 
38160 38164 38168 38172 38176 38180 38184 38188 38192 
38196 38200 38204 38208 38212 38216 38220 38224 38228 
38232 38236 38240 38244 38248 38252 38256 38260 38264 
38268 38272 38276 38280 38284 38288 38292 38296 38300 
38304 38308 38312 38316 38320 38324 38328 38332 38336 
38340 38344 38348 38352 38356 38360 38364 38368 38372 
38376 38380 38384 38388 38392 38396 38400 38404 38408 
38412 38416 38420 38424 38428 38432 38436 38440 38444 
38448 38452 38456 38460 38464 38468 38472 38476 38480 
38484 38488 38492 38496 38500 38504 38508 38512 38516 
38520 38524 38528 38532 38536 38540 38544 38548 38552 
38556 38560 38564 38568 38572 38576 38580 38584 38588 
38592 38596 38600 38604 38608 38612 38616 38620 38624 
38628 38632 38636 38640 38644 38648 38652 38656 38660 
38664 38668 38672 38676 38680 38684 38688 38692 38696 
38700 38704 38708 38712 38716 38720 38724 38728 38732 
38736 38740 38744 38748 38752 38756 38760 38764 38768 
38772 38776 38780 38784 38788 38792 38796 38800 38804 
38808 38812 38816 38820 38824 38828 38832 38836 38840 
38844 38848 38852 38856 38860 38864 38868 38872 38876 
38880 38884 38888 38892 38896 38900 38904 38908 38912 
38916 38920 38924 38928 38932 38936 38940 38944 38948 
38952 38956 38960 38964 38968 38972 38976 38980 38984 
38988 38992 38996 39000 39004 39008 39012 39016 39020 
39024 39028 39032 39036 39040 39044 39048 39052 39056 
39060 39064 39068 39072 39076 39080 39084 39088 39092 
39096 39100 39104 39108 39112 39116 39120 39124 39128 
39132 39136 39140 39144 39148 39152 39156 39160 39164 
39168 39172 39176 39180 39184 39188 39192 39196 39200 
39204 39208 39212 39216 39220 39224 39228 39232 39236 
39240 39244 39248 39252 39256 39260 39264 39268 39272 
39276 39280 39284 39288 39292 39296 39300 39304 39308 
39312 39316 39320 39324 39328 39332 39336 39340 39344 
39348 39352 39356 39360 39364 39368 39372 39376 39380 
39384 39388 39392 39396 39400 39404 39408 39412 39416 
39420 39424 39428 39432 39436 39440 39444 39448 39452 
39456 39460 39464 39468 39472 39476 39480 39484 39488 
39492 39496 39500 39504 39508 39512 39516 39520 39524 
39528 39532 39536 39540 39544 39548 39552 39556 39560 
39564 39568 39572 39576 39580 39584 39588 39592 39596 
39600 39604 39608 39612 39616 39620 39624 39628 39632 
39636 39640 39644 39648 39652 39656 39660 39664 39668 
39672 39676 39680 39684 39688 39692 39696 39700 39704 
39708 39712 39716 39720 39724 39728 39732 39736 39740 
39744 39748 39752 39756 39760 39764 39768 39772 39776 
39780 39784 39788 39792 39796 39800 39804 39808 39812 
39816 39820 39824 39828 39832 39836 39840 39844 39848 
39852 39856 39860 39864 39868 39872 39876 39880 39884 
39888 39892 39896 39900 39904 39908 39912 39916 39920 
39924 39928 39932 39936 39940 39944 39948 39952 39956 
39960 39964 39968 39972 39976 39980 39984 39988 39992 
39996 40000 40004 40008 40012 40016 40020 40024 40028 
40032 40036 40040 40044 40048 40052 40056 40060 40064 
40068 40072 40076 40080 40084 40088 40092 40096 40100 
40104 40108 40112 40116 40120 40124 40128 40132 40136 
40140 40144 40148 40152 40156 40160 40164 40168 40172 
40176 40180 40184 40188 40192 40196 40200 40204 40208 
40212 40216 40220 40224 40228 40232 40236 40240 40244 
40248 40252 40256 40260 40264 40268 40272 40276 40280 
40284 40288 40292 40296 40300 40304 40308 40312 40316 
40320 40324 40328 40332 40336 40340 40344 40348 40352 
40356 40360 40364 40368 40372 40376 40380 40384 40388 
40392 40396 40400 40404 40408 40412 40416 40420 40424 
40428 40432 40436 40440 40444 40448 40452 40456 40460 
40464 40468 40472 40476 40480 40484 40488 40492 40496 
40500 40504 40508 40512 40516 40520 40524 40528 40532 
40536 40540 40544 40548 40552 40556 40560 40564 40568 
40572 40576 40580 40584 40588 40592 40596 40600 40604 
40608 40612 40616 40620 40624 40628 40632 40636 40640 
40644 40648 40652 40656 40660 40664 40668 40672 40676 
40680 40684 40688 40692 40696 40700 40704 40708 40712 
40716 40720 40724 40728 40732 40736 40740 40744 40748 
40752 40756 40760 40764 40768 40772 40776 40780 40784 
40788 40792 40796 40800 40804 40808 40812 40816 40820 
40824 40828 40832 40836 40840 40844 40848 40852 40856 
40860 40864 40868 40872 40876 40880 40884 40888 40892 
40896 40900 40904 40908 40912 40916 40920 40924 40928 
40932 40936 40940 40944 40948 40952 40956 40960 40964 
40968 40972 40976 40980 40984 40988 40992 40996 41000 
41004 41008 41012 41016 41020 41024 41028 41032 41036 
41040 41044 41048 41052 41056 41060 41064 41068 41072 
41076 41080 41084 41088 41092 41096 41100 41104 41108 
41112 41116 41120 41124 41128 41132 41136 41140 41144 
41148 41152 41156 41160 41164 41168 41172 41176 41180 
41184 41188 41192 41196 41200 41204 41208 41212 41216 
41220 41224 41228 41232 41236 41240 41244 41248 41252 
41256 41260 41264 41268 41272 41276 41280 41284 41288 
41292 41296 41300 41304 41308 41312 41316 41320 41324 
41328 41332 41336 41340 41344 41348 41352 41356 41360 
41364 41368 41372 41376 41380 41384 41388 41392 41396 
41400 41404 41408 41412 41416 41420 41424 41428 41432 
41436 41440 41444 41448 41452 41456 41460 41464 41468 
41472 41476 41480 41484 41488 41492 41496 41500 41504 
41508 41512 41516 41520 41524 41528 41532 41536 41540 
41544 41548 41552 41556 41560 41564 41568 41572 41576 
41580 41584 41588 41592 41596 41600 41604 41608 41612 
41616 41620 41624 41628 41632 41636 41640 41644 41648 
41652 41656 41660 41664 41668 41672 41676 41680 41684 
41688 41692 41696 41700 41704 41708 41712 41716 41720 
41724 41728 41732 41736 41740 41744 41748 41752 41756 
41760 41764 41768 41772 41776 41780 41784 41788 41792 
41796 41800 41804 41808 41812 41816 41820 41824 41828 
41832 41836 41840 41844 41848 41852 41856 41860 41864 
41868 41872 41876 41880 41884 41888 41892 41896 41900 
41904 41908 41912 41916 41920 41924 41928 41932 41936 
41940 41944 41948 41952 41956 41960 41964 41968 41972 
41976 41980 41984 41988 41992 41996 42000 42004 42008 
42012 42016 42020 42024 42028 42032 42036 42040 42044 
42048 42052 42056 42060 42064 42068 42072 42076 42080 
42084 42088 42092 42096 42100 42104 42108 42112 42116 
42120 42124 42128 42132 42136 42140 42144 42148 42152 
42156 42160 42164 42168 42172 42176 42180 42184 42188 
42192 42196 42200 42204 42208 42212 42216 42220 42224 
42228 42232 42236 42240 42244 42248 42252 42256 42260 
42264 42268 42272 42276 42280 42284 42288 42292 42296 
42300 42304 42308 42312 42316 42320 42324 42328 42332 
42336 42340 42344 42348 42352 42356 42360 42364 42368 
42372 42376 42380 42384 42388 42392 42396 42400 42404 
42408 42412 42416 42420 42424 42428 42432 42436 42440 
42444 42448 42452 42456 42460 42464 42468 42472 42476 
42480 42484 42488 42492 42496 42500 42504 42508 42512 
42516 42520 42524 42528 42532 42536 42540 42544 42548 
42552 42556 42560 42564 42568 42572 42576 42580 42584 
42588 42592 42596 42600 42604 42608 42612 42616 42620 
42624 42628 42632 42636 42640 42644 42648 42652 42656 
42660 42664 42668 42672 42676 42680 42684 42688 42692 
42696 42700 42704 42708 42712 42716 42720 42724 42728 
42732 42736 42740 42744 42748 42752 42756 42760 42764 
42768 42772 42776 42780 42784 42788 42792 42796 42800 
42804 42808 42812 42816 42820 42824 42828 42832 42836 
42840 42844 42848 42852 42856 42860 42864 42868 42872 
42876 42880 42884 42888 42892 42896 42900 42904 42908 
42912 42916 42920 42924 42928 42932 42936 42940 42944 
42948 42952 42956 42960 42964 42968 42972 42976 42980 
42984 42988 42992 42996 43000 43004 43008 43012 43016 
43020 43024 43028 43032 43036 43040 43044 43048 43052 
43056 43060 43064 43068 43072 43076 43080 43084 43088 
43092 43096 43100 43104 43108 43112 43116 43120 43124 
43128 43132 43136 43140 43144 43148 43152 43156 43160 
43164 43168 43172 43176 43180 43184 43188 43192 43196 
43200 43204 43208 43212 43216 43220 43224 43228 43232 
43236 43240 43244 43248 43252 43256 43260 43264 43268 
43272 43276 43280 43284 43288 43292 43296 43300 43304 
43308 43312 43316 43320 43324 43328 43332 43336 43340 
43344 43348 43352 43356 43360 43364 43368 43372 43376 
43380 43384 43388 43392 43396 43400 43404 43408 43412 
43416 43420 43424 43428 43432 43436 43440 43444 43448 
43452 43456 43460 43464 43468 43472 43476 43480 43484 
43488 43492 43496 43500 43504 43508 43512 43516 43520 
43524 43528 43532 43536 43540 43544 43548 43552 43556 
43560 43564 43568 43572 43576 43580 43584 43588 43592 
43596 43600 43604 43608 43612 43616 43620 43624 43628 
43632 43636 43640 43644 43648 43652 43656 43660 43664 
43668 43672 43676 43680 43684 43688 43692 43696 43700 
43704 43708 43712 43716 43720 43724 43728 43732 43736 
43740 43744 43748 43752 43756 43760 43764 43768 43772 
43776 43780 43784 43788 43792 43796 43800 43804 43808 
43812 43816 43820 43824 43828 43832 43836 43840 43844 
43848 43852 43856 43860 43864 43868 43872 43876 43880 
43884 43888 43892 43896 43900 43904 43908 43912 43916 
43920 43924 43928 43932 43936 43940 43944 43948 43952 
43956 43960 43964 43968 43972 43976 43980 43984 43988 
43992 43996 44000 44004 44008 44012 44016 44020 44024 
44028 44032 44036 44040 44044 44048 44052 44056 44060 
44064 44068 44072 44076 44080 44084 44088 44092 44096 
44100 44104 44108 44112 44116 44120 44124 44128 44132 
44136 44140 44144 44148 44152 44156 44160 44164 44168 
44172 44176 44180 44184 44188 44192 44196 44200 44204 
44208 44212 44216 44220 44224 44228 44232 44236 44240 
44244 44248 44252 44256 44260 44264 44268 44272 44276 
44280 44284 44288 44292 44296 44300 44304 44308 44312 
44316 44320 44324 44328 44332 44336 44340 44344 44348 
44352 44356 44360 44364 44368 44372 44376 44380 44384 
44388 44392 44396 44400 44404 44408 44412 44416 44420 
44424 44428 44432 44436 44440 44444 44448 44452 44456 
44460 44464 44468 44472 44476 44480 44484 44488 44492 
44496 44500 44504 44508 44512 44516 44520 44524 44528 
44532 44536 44540 44544 44548 44552 44556 44560 44564 
44568 44572 44576 44580 44584 44588 44592 44596 44600 
44604 44608 44612 44616 44620 44624 44628 44632 44636 
44640 44644 44648 44652 44656 44660 44664 44668 44672 
44676 44680 44684 44688 44692 44696 44700 44704 44708 
44712 44716 44720 44724 44728 44732 44736 44740 44744 
44748 44752 44756 44760 44764 44768 44772 44776 44780 
44784 44788 44792 44796 44800 44804 44808 44812 44816 
44820 44824 44828 44832 44836 44840 44844 44848 44852 
44856 44860 44864 44868 44872 44876 44880 44884 44888 
44892 44896 44900 44904 44908 44912 44916 44920 44924 
44928 44932 44936 44940 44944 44948 44952 44956 44960 
44964 44968 44972 44976 44980 44984 44988 44992 44996 
45000 45004 45008 45012 45016 45020 45024 45028 45032 
45036 45040 45044 45048 45052 45056 45060 45064 45068 
45072 45076 45080 45084 45088 45092 45096 45100 45104 
45108 45112 45116 45120 45124 45128 45132 45136 45140 
45144 45148 45152 45156 45160 45164 45168 45172 45176 
45180 45184 45188 45192 45196 45200 45204 45208 45212 
45216 45220 45224 45228 45232 45236 45240 45244 45248 
45252 45256 45260 45264 45268 45272 45276 45280 45284 
45288 45292 45296 45300 45304 45308 45312 45316 45320 
45324 45328 45332 45336 45340 45344 45348 45352 45356 
45360 45364 45368 45372 45376 45380 45384 45388 45392 
45396 45400 45404 45408 45412 45416 45420 45424 45428 
45432 45436 45440 45444 45448 45452 45456 45460 45464 
45468 45472 45476 45480 45484 45488 45492 45496 45500 
45504 45508 45512 45516 45520 45524 45528 45532 45536 
45540 45544 45548 45552 45556 45560 45564 45568 45572 
45576 45580 45584 45588 45592 45596 45600 45604 45608 
45612 45616 45620 45624 45628 45632 45636 45640 45644 
45648 45652 45656 45660 45664 45668 45672 45676 45680 
45684 45688 45692 45696 45700 45704 45708 45712 45716 
45720 45724 45728 45732 45736 45740 45744 45748 45752 
45756 45760 45764 45768 45772 45776 45780 45784 45788 
45792 45796 45800 45804 45808 45812 45816 45820 45824 
45828 45832 45836 45840 45844 45848 45852 45856 45860 
45864 45868 45872 45876 45880 45884 45888 45892 45896 
45900 45904 45908 45912 45916 45920 45924 45928 45932 
45936 45940 45944 45948 45952 45956 45960 45964 45968 
45972 45976 45980 45984 45988 45992 45996 46000 46004 
46008 46012 46016 46020 46024 46028 46032 46036 46040 
46044 46048 46052 46056 46060 46064 46068 46072 46076 
46080 46084 46088 46092 46096 46100 46104 46108 46112 
46116 46120 46124 46128 46132 46136 46140 46144 46148 
46152 46156 46160 46164 46168 46172 46176 46180 46184 
46188 46192 46196 46200 46204 46208 46212 46216 46220 
46224 46228 46232 46236 46240 46244 46248 46252 46256 
46260 46264 46268 46272 46276 46280 46284 46288 46292 
46296 46300 46304 46308 46312 46316 46320 46324 46328 
46332 46336 46340 46344 46348 46352 46356 46360 46364 
46368 46372 46376 46380 46384 46388 46392 46396 46400 
46404 46408 46412 46416 46420 46424 46428 46432 46436 
46440 46444 46448 46452 46456 46460 46464 46468 46472 
46476 46480 46484 46488 46492 46496 46500 46504 46508 
46512 46516 46520 46524 46528 46532 46536 46540 46544 
46548 46552 46556 46560 46564 46568 46572 46576 46580 
46584 46588 46592 46596 46600 46604 46608 46612 46616 
46620 46624 46628 46632 46636 46640 46644 46648 46652 
46656 46660 46664 46668 46672 46676 46680 46684 46688 
46692 46696 46700 46704 46708 46712 46716 46720 46724 
46728 46732 46736 46740 46744 46748 46752 46756 46760 
46764 46768 46772 46776 46780 46784 46788 46792 46796 
46800 46804 46808 46812 46816 46820 46824 46828 46832 
46836 46840 46844 46848 46852 46856 46860 46864 46868 
46872 46876 46880 46884 46888 46892 46896 46900 46904 
46908 46912 46916 46920 46924 46928 46932 46936 46940 
46944 46948 46952 46956 46960 46964 46968 46972 46976 
46980 46984 46988 46992 46996 47000 47004 47008 47012 
47016 47020 47024 47028 47032 47036 47040 47044 47048 
47052 47056 47060 47064 47068 47072 47076 47080 47084 
47088 47092 47096 47100 47104 47108 47112 47116 47120 
47124 47128 47132 47136 47140 47144 47148 47152 47156 
47160 47164 47168 47172 47176 47180 47184 47188 47192 
47196 47200 47204 47208 47212 47216 47220 47224 47228 
47232 47236 47240 47244 47248 47252 47256 47260 47264 
47268 47272 47276 47280 47284 47288 47292 47296 47300 
47304 47308 47312 47316 47320 47324 47328 47332 47336 
47340 47344 47348 47352 47356 47360 47364 47368 47372 
47376 47380 47384 47388 47392 47396 47400 47404 47408 
47412 47416 47420 47424 47428 47432 47436 47440 47444 
47448 47452 47456 47460 47464 47468 47472 47476 47480 
47484 47488 47492 47496 47500 47504 47508 47512 47516 
47520 47524 47528 47532 47536 47540 47544 47548 47552 
47556 47560 47564 47568 47572 47576 47580 47584 47588 
47592 47596 47600 47604 47608 47612 47616 47620 47624 
47628 47632 47636 47640 47644 47648 47652 47656 47660 
47664 47668 47672 47676 47680 47684 47688 47692 47696 
47700 47704 47708 47712 47716 47720 47724 47728 47732 
47736 47740 47744 47748 47752 47756 47760 47764 47768 
47772 47776 47780 47784 47788 47792 47796 47800 47804 
47808 47812 47816 47820 47824 47828 47832 47836 47840 
47844 47848 47852 47856 47860 47864 47868 47872 47876 
47880 47884 47888 47892 47896 47900 47904 47908 47912 
47916 47920 47924 47928 47932 47936 47940 47944 47948 
47952 47956 47960 47964 47968 47972 47976 47980 47984 
47988 47992 47996 48000 48004 48008 48012 48016 48020 
48024 48028 48032 48036 48040 48044 48048 48052 48056 
48060 48064 48068 48072 48076 48080 48084 48088 48092 
48096 48100 48104 48108 48112 48116 48120 48124 48128 
48132 48136 48140 48144 48148 48152 48156 48160 48164 
48168 48172 48176 48180 48184 48188 48192 48196 48200 
48204 48208 48212 48216 48220 48224 48228 48232 48236 
48240 48244 48248 48252 48256 48260 48264 48268 48272 
48276 48280 48284 48288 48292 48296 48300 48304 48308 
48312 48316 48320 48324 48328 48332 48336 48340 48344 
48348 48352 48356 48360 48364 48368 48372 48376 48380 
48384 48388 48392 48396 48400 48404 48408 48412 48416 
48420 48424 48428 48432 48436 48440 48444 48448 48452 
48456 48460 48464 48468 48472 48476 48480 48484 48488 
48492 48496 48500 48504 48508 48512 48516 48520 48524 
48528 48532 48536 48540 48544 48548 48552 48556 48560 
48564 48568 48572 48576 48580 48584 48588 48592 48596 
48600 48604 48608 48612 48616 48620 48624 48628 48632 
48636 48640 48644 48648 48652 48656 48660 48664 48668 
48672 48676 48680 48684 48688 48692 48696 48700 48704 
48708 48712 48716 48720 48724 48728 48732 48736 48740 
48744 48748 48752 48756 48760 48764 48768 48772 48776 
48780 48784 48788 48792 48796 48800 48804 48808 48812 
48816 48820 48824 48828 48832 48836 48840 48844 48848 
48852 48856 48860 48864 48868 48872 48876 48880 48884 
48888 48892 48896 48900 48904 48908 48912 48916 48920 
48924 48928 48932 48936 48940 48944 48948 48952 48956 
48960 48964 48968 48972 48976 48980 48984 48988 48992 
48996 49000 49004 49008 49012 49016 49020 49024 49028 
49032 49036 49040 49044 49048 49052 49056 49060 49064 
49068 49072 49076 49080 49084 49088 49092 49096 49100 
49104 49108 49112 49116 49120 49124 49128 49132 49136 
49140 49144 49148 49152 49156 49160 49164 49168 49172 
49176 49180 49184 49188 49192 49196 49200 49204 49208 
49212 49216 49220 49224 49228 49232 49236 49240 49244 
49248 49252 49256 49260 49264 49268 49272 49276 49280 
49284 49288 49292 49296 49300 49304 49308 49312 49316 
49320 49324 49328 49332 49336 49340 49344 49348 49352 
49356 49360 49364 49368 49372 49376 49380 49384 49388 
49392 49396 49400 49404 49408 49412 49416 49420 49424 
49428 49432 49436 49440 49444 49448 49452 49456 49460 
49464 49468 49472 49476 49480 49484 49488 49492 49496 
49500 49504 49508 49512 49516 49520 49524 49528 49532 
49536 49540 49544 49548 49552 49556 49560 49564 49568 
49572 49576 49580 49584 49588 49592 49596 49600 49604 
49608 49612 49616 49620 49624 49628 49632 49636 49640 
49644 49648 49652 49656 49660 49664 49668 49672 49676 
49680 49684 49688 49692 49696 49700 49704 49708 49712 
49716 49720 49724 49728 49732 49736 49740 49744 49748 
49752 49756 49760 49764 49768 49772 49776 49780 49784 
49788 49792 49796 49800 49804 49808 49812 49816 49820 
49824 49828 49832 49836 49840 49844 49848 49852 49856 
49860 49864 49868 49872 49876 49880 49884 49888 49892 
49896 49900 49904 49908 49912 49916 49920 49924 49928 
49932 49936 49940 49944 49948 49952 49956 49960 49964 
49968 49972 49976 49980 49984 49988 49992 49996 50000 
50004 50008 50012 50016 50020 50024 50028 50032 50036 
50040 50044 50048 50052 50056 50060 50064 50068 50072 
50076 50080 50084 50088 50092 50096 50100 50104 50108 
50112 50116 50120 50124 50128 50132 50136 50140 50144 
50148 50152 50156 50160 50164 50168 50172 50176 50180 
50184 50188 50192 50196 50200 50204 50208 50212 50216 
50220 50224 50228 50232 50236 50240 50244 50248 50252 
50256 50260 50264 50268 50272 50276 50280 50284 50288 
50292 50296 50300 50304 50308 50312 50316 50320 50324 
50328 50332 50336 50340 50344 50348 50352 50356 50360 
50364 50368 50372 50376 50380 50384 50388 50392 50396 
50400 50404 50408 50412 50416 50420 50424 50428 50432 
50436 50440 50444 50448 50452 50456 50460 50464 50468 
50472 50476 50480 50484 50488 50492 50496 50500 50504 
50508 50512 50516 50520 50524 50528 50532 50536 50540 
50544 50548 50552 50556 50560 50564 50568 50572 50576 
50580 50584 50588 50592 50596 50600 50604 50608 50612 
50616 50620 50624 50628 50632 50636 50640 50644 50648 
50652 50656 50660 50664 50668 50672 50676 50680 50684 
50688 50692 50696 50700 50704 50708 50712 50716 50720 
50724 50728 50732 50736 50740 50744 50748 50752 50756 
50760 50764 50768 50772 50776 50780 50784 50788 50792 
50796 50800 50804 50808 50812 50816 50820 50824 50828 
50832 50836 50840 50844 50848 50852 50856 50860 50864 
50868 50872 50876 50880 50884 50888 50892 50896 50900 
50904 50908 50912 50916 50920 50924 50928 50932 50936 
50940 50944 50948 50952 50956 50960 50964 50968 50972 
50976 50980 50984 50988 50992 50996 51000 51004 51008 
51012 51016 51020 51024 51028 51032 51036 51040 51044 
51048 51052 51056 51060 51064 51068 51072 51076 51080 
51084 51088 51092 51096 51100 51104 51108 51112 51116 
51120 51124 51128 51132 51136 51140 51144 51148 51152 
51156 51160 51164 51168 51172 51176 51180 51184 51188 
51192 51196 51200 51204 51208 51212 51216 51220 51224 
51228 51232 51236 51240 51244 51248 51252 51256 51260 
51264 51268 51272 51276 51280 51284 51288 51292 51296 
51300 51304 51308 51312 51316 51320 51324 51328 51332 
51336 51340 51344 51348 51352 51356 51360 51364 51368 
51372 51376 51380 51384 51388 51392 51396 51400 51404 
51408 51412 51416 51420 51424 51428 51432 51436 51440 
51444 51448 51452 51456 51460 51464 51468 51472 51476 
51480 51484 51488 51492 51496 51500 51504 51508 51512 
51516 51520 51524 51528 51532 51536 51540 51544 51548 
51552 51556 51560 51564 51568 51572 51576 51580 51584 
51588 51592 51596 51600 51604 51608 51612 51616 51620 
51624 51628 51632 51636 51640 51644 51648 51652 51656 
51660 51664 51668 51672 51676 51680 51684 51688 51692 
51696 51700 51704 51708 51712 51716 51720 51724 51728 
51732 51736 51740 51744 51748 51752 51756 51760 51764 
51768 51772 51776 51780 51784 51788 51792 51796 51800 
51804 51808 51812 51816 51820 51824 51828 51832 51836 
51840 51844 51848 51852 51856 51860 51864 51868 51872 
51876 51880 51884 51888 51892 51896 51900 51904 51908 
51912 51916 51920 51924 51928 51932 51936 51940 51944 
51948 51952 51956 51960 51964 51968 51972 51976 51980 
51984 51988 51992 51996 52000 52004 52008 52012 52016 
52020 52024 52028 52032 52036 52040 52044 52048 52052 
52056 52060 52064 52068 52072 52076 52080 52084 52088 
52092 52096 52100 52104 52108 52112 52116 52120 52124 
52128 52132 52136 52140 52144 52148 52152 52156 52160 
52164 52168 52172 52176 52180 52184 52188 52192 52196 
52200 52204 52208 52212 52216 52220 52224 52228 52232 
52236 52240 52244 52248 52252 52256 52260 52264 52268 
52272 52276 52280 52284 52288 52292 52296 52300 52304 
52308 52312 52316 52320 52324 52328 52332 52336 52340 
52344 52348 52352 52356 52360 52364 52368 52372 52376 
52380 52384 52388 52392 52396 52400 52404 52408 52412 
52416 52420 52424 52428 52432 52436 52440 52444 52448 
52452 52456 52460 52464 52468 52472 52476 52480 52484 
52488 52492 52496 52500 52504 52508 52512 52516 52520 
52524 52528 52532 52536 52540 52544 52548 52552 52556 
52560 52564 52568 52572 52576 52580 52584 52588 52592 
52596 52600 52604 52608 52612 52616 52620 52624 52628 
52632 52636 52640 52644 52648 52652 52656 52660 52664 
52668 52672 52676 52680 52684 52688 52692 52696 52700 
52704 52708 52712 52716 52720 52724 52728 52732 52736 
52740 52744 52748 52752 52756 52760 52764 52768 52772 
52776 52780 52784 52788 52792 52796 52800 52804 52808 
52812 52816 52820 52824 52828 52832 52836 52840 52844 
52848 52852 52856 52860 52864 52868 52872 52876 52880 
52884 52888 52892 52896 52900 52904 52908 52912 52916 
52920 52924 52928 52932 52936 52940 52944 52948 52952 
52956 52960 52964 52968 52972 52976 52980 52984 52988 
52992 52996 53000 53004 53008 53012 53016 53020 53024 
53028 53032 53036 53040 53044 53048 53052 53056 53060 
53064 53068 53072 53076 53080 53084 53088 53092 53096 
53100 53104 53108 53112 53116 53120 53124 53128 53132 
53136 53140 53144 53148 53152 53156 53160 53164 53168 
53172 53176 53180 53184 53188 53192 53196 53200 53204 
53208 53212 53216 53220 53224 53228 53232 53236 53240 
53244 53248 53252 53256 53260 53264 53268 53272 53276 
53280 53284 53288 53292 53296 53300 53304 53308 53312 
53316 53320 53324 53328 53332 53336 53340 53344 53348 
53352 53356 53360 53364 53368 53372 53376 53380 53384 
53388 53392 53396 53400 53404 53408 53412 53416 53420 
53424 53428 53432 53436 53440 53444 53448 53452 53456 
53460 53464 53468 53472 53476 53480 53484 53488 53492 
53496 53500 53504 53508 53512 53516 53520 53524 53528 
53532 53536 53540 53544 53548 53552 53556 53560 53564 
53568 53572 53576 53580 53584 53588 53592 53596 53600 
53604 53608 53612 53616 53620 53624 53628 53632 53636 
53640 53644 53648 53652 53656 53660 53664 53668 53672 
53676 53680 53684 53688 53692 53696 53700 53704 53708 
53712 53716 53720 53724 53728 53732 53736 53740 53744 
53748 53752 53756 53760 53764 53768 53772 53776 53780 
53784 53788 53792 53796 53800 53804 53808 53812 53816 
53820 53824 53828 53832 53836 53840 53844 53848 53852 
53856 53860 53864 53868 53872 53876 53880 53884 53888 
53892 53896 53900 53904 53908 53912 53916 53920 53924 
53928 53932 53936 53940 53944 53948 53952 53956 53960 
53964 53968 53972 53976 53980 53984 53988 53992 53996 
54000 54004 54008 54012 54016 54020 54024 54028 54032 
54036 54040 54044 54048 54052 54056 54060 54064 54068 
54072 54076 54080 54084 54088 54092 54096 54100 54104 
54108 54112 54116 54120 54124 54128 54132 54136 54140 
54144 54148 54152 54156 54160 54164 54168 54172 54176 
54180 54184 54188 54192 54196 54200 54204 54208 54212 
54216 54220 54224 54228 54232 54236 54240 54244 54248 
54252 54256 54260 54264 54268 54272 54276 54280 54284 
54288 54292 54296 54300 54304 54308 54312 54316 54320 
54324 54328 54332 54336 54340 54344 54348 54352 54356 
54360 54364 54368 54372 54376 54380 54384 54388 54392 
54396 54400 54404 54408 54412 54416 54420 54424 54428 
54432 54436 54440 54444 54448 54452 54456 54460 54464 
54468 54472 54476 54480 54484 54488 54492 54496 54500 
54504 54508 54512 54516 54520 54524 54528 54532 54536 
54540 54544 54548 54552 54556 54560 54564 54568 54572 
54576 54580 54584 54588 54592 54596 54600 54604 54608 
54612 54616 54620 54624 54628 54632 54636 54640 54644 
54648 54652 54656 54660 54664 54668 54672 54676 54680 
54684 54688 54692 54696 54700 54704 54708 54712 54716 
54720 54724 54728 54732 54736 54740 54744 54748 54752 
54756 54760 54764 54768 54772 54776 54780 54784 54788 
54792 54796 54800 54804 54808 54812 54816 54820 54824 
54828 54832 54836 54840 54844 54848 54852 54856 54860 
54864 54868 54872 54876 54880 54884 54888 54892 54896 
54900 54904 54908 54912 54916 54920 54924 54928 54932 
54936 54940 54944 54948 54952 54956 54960 54964 54968 
54972 54976 54980 54984 54988 54992 54996 55000 55004 
55008 55012 55016 55020 55024 55028 55032 55036 55040 
55044 55048 55052 55056 55060 55064 55068 55072 55076 
55080 55084 55088 55092 55096 55100 55104 55108 55112 
55116 55120 55124 55128 55132 55136 55140 55144 55148 
55152 55156 55160 55164 55168 55172 55176 55180 55184 
55188 55192 55196 55200 55204 55208 55212 55216 55220 
55224 55228 55232 55236 55240 55244 55248 55252 55256 
55260 55264 55268 55272 55276 55280 55284 55288 55292 
55296 55300 55304 55308 55312 55316 55320 55324 55328 
55332 55336 55340 55344 55348 55352 55356 55360 55364 
55368 55372 55376 55380 55384 55388 55392 55396 55400 
55404 55408 55412 55416 55420 55424 55428 55432 55436 
55440 55444 55448 55452 55456 55460 55464 55468 55472 
55476 55480 55484 55488 55492 55496 55500 55504 55508 
55512 55516 55520 55524 55528 55532 55536 55540 55544 
55548 55552 55556 55560 55564 55568 55572 55576 55580 
55584 55588 55592 55596 55600 55604 55608 55612 55616 
55620 55624 55628 55632 55636 55640 55644 55648 55652 
55656 55660 55664 55668 55672 55676 55680 55684 55688 
55692 55696 55700 55704 55708 55712 55716 55720 55724 
55728 55732 55736 55740 55744 55748 55752 55756 55760 
55764 55768 55772 55776 55780 55784 55788 55792 55796 
55800 55804 55808 55812 55816 55820 55824 55828 55832 
55836 55840 55844 55848 55852 55856 55860 55864 55868 
55872 55876 55880 55884 55888 55892 55896 55900 55904 
55908 55912 55916 55920 55924 55928 55932 55936 55940 
55944 55948 55952 55956 55960 55964 55968 55972 55976 
55980 55984 55988 55992 55996 56000 56004 56008 56012 
56016 56020 56024 56028 56032 56036 56040 56044 56048 
56052 56056 56060 56064 56068 56072 56076 56080 56084 
56088 56092 56096 56100 56104 56108 56112 56116 56120 
56124 56128 56132 56136 56140 56144 56148 56152 56156 
56160 56164 56168 56172 56176 56180 56184 56188 56192 
56196 56200 56204 56208 56212 56216 56220 56224 56228 
56232 56236 56240 56244 56248 56252 56256 56260 56264 
56268 56272 56276 56280 56284 56288 56292 56296 56300 
56304 56308 56312 56316 56320 56324 56328 56332 56336 
56340 56344 56348 56352 56356 56360 56364 56368 56372 
56376 56380 56384 56388 56392 56396 56400 56404 56408 
56412 56416 56420 56424 56428 56432 56436 56440 56444 
56448 56452 56456 56460 56464 56468 56472 56476 56480 
56484 56488 56492 56496 56500 56504 56508 56512 56516 
56520 56524 56528 56532 56536 56540 56544 56548 56552 
56556 56560 56564 56568 56572 56576 56580 56584 56588 
56592 56596 56600 56604 56608 56612 56616 56620 56624 
56628 56632 56636 56640 56644 56648 56652 56656 56660 
56664 56668 56672 56676 56680 56684 56688 56692 56696 
56700 56704 56708 56712 56716 56720 56724 56728 56732 
56736 56740 56744 56748 56752 56756 56760 56764 56768 
56772 56776 56780 56784 56788 56792 56796 56800 56804 
56808 56812 56816 56820 56824 56828 56832 56836 56840 
56844 56848 56852 56856 56860 56864 56868 56872 56876 
56880 56884 56888 56892 56896 56900 56904 56908 56912 
56916 56920 56924 56928 56932 56936 56940 56944 56948 
56952 56956 56960 56964 56968 56972 56976 56980 56984 
56988 56992 56996 57000 57004 57008 57012 57016 57020 
57024 57028 57032 57036 57040 57044 57048 57052 57056 
57060 57064 57068 57072 57076 57080 57084 57088 57092 
57096 57100 57104 57108 57112 57116 57120 57124 57128 
57132 57136 57140 57144 57148 57152 57156 57160 57164 
57168 57172 57176 57180 57184 57188 57192 57196 57200 
57204 57208 57212 57216 57220 57224 57228 57232 57236 
57240 57244 57248 57252 57256 57260 57264 57268 57272 
57276 57280 57284 57288 57292 57296 57300 57304 57308 
57312 57316 57320 57324 57328 57332 57336 57340 57344 
57348 57352 57356 57360 57364 57368 57372 57376 57380 
57384 57388 57392 57396 57400 57404 57408 57412 57416 
57420 57424 57428 57432 57436 57440 57444 57448 57452 
57456 57460 57464 57468 57472 57476 57480 57484 57488 
57492 57496 57500 57504 57508 57512 57516 57520 57524 
57528 57532 57536 57540 57544 57548 57552 57556 57560 
57564 57568 57572 57576 57580 57584 57588 57592 57596 
57600 57604 57608 57612 57616 57620 57624 57628 57632 
57636 57640 57644 57648 57652 57656 57660 57664 57668 
57672 57676 57680 57684 57688 57692 57696 57700 57704 
57708 57712 57716 57720 57724 57728 57732 57736 57740 
57744 57748 57752 57756 57760 57764 57768 57772 57776 
57780 57784 57788 57792 57796 57800 57804 57808 57812 
57816 57820 57824 57828 57832 57836 57840 57844 57848 
57852 57856 57860 57864 57868 57872 57876 57880 57884 
57888 57892 57896 57900 57904 57908 57912 57916 57920 
57924 57928 57932 57936 57940 57944 57948 57952 57956 
57960 57964 57968 57972 57976 57980 57984 57988 57992 
57996 58000 58004 58008 58012 58016 58020 58024 58028 
58032 58036 58040 58044 58048 58052 58056 58060 58064 
58068 58072 58076 58080 58084 58088 58092 58096 58100 
58104 58108 58112 58116 58120 58124 58128 58132 58136 
58140 58144 58148 58152 58156 58160 58164 58168 58172 
58176 58180 58184 58188 58192 58196 58200 58204 58208 
58212 58216 58220 58224 58228 58232 58236 58240 58244 
58248 58252 58256 58260 58264 58268 58272 58276 58280 
58284 58288 58292 58296 58300 58304 58308 58312 58316 
58320 58324 58328 58332 58336 58340 58344 58348 58352 
58356 58360 58364 58368 58372 58376 58380 58384 58388 
58392 58396 58400 58404 58408 58412 58416 58420 58424 
58428 58432 58436 58440 58444 58448 58452 58456 58460 
58464 58468 58472 58476 58480 58484 58488 58492 58496 
58500 58504 58508 58512 58516 58520 58524 58528 58532 
58536 58540 58544 58548 58552 58556 58560 58564 58568 
58572 58576 58580 58584 58588 58592 58596 58600 58604 
58608 58612 58616 58620 58624 58628 58632 58636 58640 
58644 58648 58652 58656 58660 58664 58668 58672 58676 
58680 58684 58688 58692 58696 58700 58704 58708 58712 
58716 58720 58724 58728 58732 58736 58740 58744 58748 
58752 58756 58760 58764 58768 58772 58776 58780 58784 
58788 58792 58796 58800 58804 58808 58812 58816 58820 
58824 58828 58832 58836 58840 58844 58848 58852 58856 
58860 58864 58868 58872 58876 58880 58884 58888 58892 
58896 58900 58904 58908 58912 58916 58920 58924 58928 
58932 58936 58940 58944 58948 58952 58956 58960 58964 
58968 58972 58976 58980 58984 58988 58992 58996 59000 
59004 59008 59012 59016 59020 59024 59028 59032 59036 
59040 59044 59048 59052 59056 59060 59064 59068 59072 
59076 59080 59084 59088 59092 59096 59100 59104 59108 
59112 59116 59120 59124 59128 59132 59136 59140 59144 
59148 59152 59156 59160 59164 59168 59172 59176 59180 
59184 59188 59192 59196 59200 59204 59208 59212 59216 
59220 59224 59228 59232 59236 59240 59244 59248 59252 
59256 59260 59264 59268 59272 59276 59280 59284 59288 
59292 59296 59300 59304 59308 59312 59316 59320 59324 
59328 59332 59336 59340 59344 59348 59352 59356 59360 
59364 59368 59372 59376 59380 59384 59388 59392 59396 
59400 59404 59408 59412 59416 59420 59424 59428 59432 
59436 59440 59444 59448 59452 59456 59460 59464 59468 
59472 59476 59480 59484 59488 59492 59496 59500 59504 
59508 59512 59516 59520 59524 59528 59532 59536 59540 
59544 59548 59552 59556 59560 59564 59568 59572 59576 
59580 59584 59588 59592 59596 59600 59604 59608 59612 
59616 59620 59624 59628 59632 59636 59640 59644 59648 
59652 59656 59660 59664 59668 59672 59676 59680 59684 
59688 59692 59696 59700 59704 59708 59712 59716 59720 
59724 59728 59732 59736 59740 59744 59748 59752 59756 
59760 59764 59768 59772 59776 59780 59784 59788 59792 
59796 59800 59804 59808 59812 59816 59820 59824 59828 
59832 59836 59840 59844 59848 59852 59856 59860 59864 
59868 59872 59876 59880 59884 59888 59892 59896 59900 
59904 59908 59912 59916 59920 59924 59928 59932 59936 
59940 59944 59948 59952 59956 59960 59964 59968 59972 
59976 59980 59984 59988 59992 59996 60000 60004 60008 
60012 60016 60020 60024 60028 60032 60036 60040 60044 
60048 60052 60056 60060 60064 60068 60072 60076 60080 
60084 60088 60092 60096 60100 60104 60108 60112 60116 
60120 60124 60128 60132 60136 60140 60144 60148 60152 
60156 60160 60164 60168 60172 60176 60180 60184 60188 
60192 60196 60200 60204 60208 60212 60216 60220 60224 
60228 60232 60236 60240 60244 60248 60252 60256 60260 
60264 60268 60272 60276 60280 60284 60288 60292 60296 
60300 60304 60308 60312 60316 60320 60324 60328 60332 
60336 60340 60344 60348 60352 60356 60360 60364 60368 
60372 60376 60380 60384 60388 60392 60396 60400 60404 
60408 60412 60416 60420 60424 60428 60432 60436 60440 
60444 60448 60452 60456 60460 60464 60468 60472 60476 
60480 60484 60488 60492 60496 60500 60504 60508 60512 
60516 60520 60524 60528 60532 60536 60540 60544 60548 
60552 60556 60560 60564 60568 60572 60576 60580 60584 
60588 60592 60596 60600 60604 60608 60612 60616 60620 
60624 60628 60632 60636 60640 60644 60648 60652 60656 
60660 60664 60668 60672 60676 60680 60684 60688 60692 
60696 60700 60704 60708 60712 60716 60720 60724 60728 
60732 60736 60740 60744 60748 60752 60756 60760 60764 
60768 60772 60776 60780 60784 60788 60792 60796 60800 
60804 60808 60812 60816 60820 60824 60828 60832 60836 
60840 60844 60848 60852 60856 60860 60864 60868 60872 
60876 60880 60884 60888 60892 60896 60900 60904 60908 
60912 60916 60920 60924 60928 
CONNECTIVITY vtktypeint64
2804 750 827 752 3590 3468 722 257 3358 
2788 767 2752 2804 562 564 2802 3398 1141 
1199 242 2686 2662 2663 2707 3479 2697 561 
2698 3254 2330 348 3229 2754 2753 838 764 
2627 1727 1690 3300 2655 2726 3207 2625 2705 
993 995 939 2761 559 601 602 2635 2662 
1133 2634 1894 1825 1890 1788 2266 990 936 
2295 3443 1160 1162 267 1891 1893 1894 1898 
2736 1058 1115 1014 2136 1567 1568 2135 3506 
3330 531 1978 2444 861 791 2409 2170 3186 
792 715 2469 2502 1230 1300 3306 375 376 
2064 2884 3240 3258 2096 1985 1726 1724 1719 
2874 2884 3188 3258 3197 1759 497 1762 2090 
2205 3236 3186 2399 194 195 659 2221 2247 
1417 1362 3257 1948 1965 1966 2313 787 2245 
2219 2259 1563 345 1562 2197 860 850 852 
3237 1757 2213 3176 1898 1902 1826 1905 2457 
3167 1608 2423 3243 2252 2225 924 3424 1931 
1191 1948 3502 3329 1200 78 2640 895 953 
2609 2334 2306 1520 3213 3572 3403 1171 226 
2978 2377 2376 2413 3473 172 554 2728 3275 
39 17 10 2498 1556 53 332 2524 2556 
1072 2557 2597 3034 2629 2596 3619 7 1134 
3518 2221 1419 3256 2187 2279 2247 1360 2280 
2655 2742 616 2726 3604 3442 1160 266 3556 
3422 755 298 3381 207 1134 32 3049 3061 
3054 3068 2384 60 2421 2422 3270 1054 1055 
1094 2500 1470 1510 1468 3465 282 725 281 
2492 1049 1088 1048 1907 509 1780 1920 1896 
680 212 124 2173 201 200 1673 2815 2813 
244 1892 2622 45 1580 2653 3557 254 728 
253 2791 2812 3082 2792 2723 614 613 629 
2693 1056 1095 2669 3152 745 821 2488 2649 
64 12 1766 2001 1858 2026 3175 3622 3499 
687 303 1969 1990 1832 1965 1919 1878 1868 
1918 3144 379 95 93 1907 516 517 1792 
2146 2093 1252 1173 1250 2172 2117 1171 3442 
266 1158 1160 2321 384 385 1617 2009 406 
100 1724 3290 1463 1462 1504 3057 3270 2642 
2669 3425 2077 693 3246 1925 210 91 1683 
135 1884 1961 95 2065 366 365 1711 2816 
1908 121 1894 2627 1727 66 404 2798 2768 
639 2781 3061 3295 2712 2644 2664 1281 1282 
2663 2571 2602 1216 1136 1949 1264 1925 1932 
3284 1079 1039 2327 2044 2017 2046 2013 2382 
1023 1022 1064 3528 3083 484 3348 3365 6 
575 3207 2696 1132 1130 166 2676 573 164 
571 2496 1662 54 1663 2090 3236 391 392 
2285 969 914 912 1921 471 470 1771 2880 
3249 2070 2850 3173 2392 2357 3227 2222 1465 
1507 1467 2299 457 1753 458 1984 1725 408 
3214 3171 1578 378 1577 2350 1602 396 69 
2573 2604 1284 2603 2278 1231 1154 1152 2450 
2534 2568 2533 62 2389 2485 441 2613 2614 
1053 3270 3211 1611 1613 148 2883 2947 3245 
2882 2645 3270 2647 1093 2641 2609 953 2610 
2403 1472 1474 3285 2958 2971 2319 2349 3083 
1551 21 2725 3223 1556 352 1555 2715 3277 
1011 1057 3225 1540 1522 1541 2678 2654 25 
2623 2995 2458 2440 2467 1621 14 3234 424 
3571 231 662 3458 1970 1327 1260 1329 2185 
1158 1235 1237 2072 1255 1324 1323 2008 1713 
410 1714 2157 779 848 777 3617 3380 1804 
2069 2373 859 789 858 2524 1071 2556 2523 
2067 1582 138 1624 3315 1226 1149 2531 2788 
767 748 179 3194 2786 2802 2785 2754 612 
574 581 2022 1531 1530 1490 3437 710 708 
2278 2659 935 937 875 3254 456 1751 1752 
3410 749 751 3155 2559 1294 2566 2588 3274 
58 1660 1662 2402 2440 2427 350 1954 1876 
1859 1977 1995 1386 1327 1387 2775 959 961 
902 2825 1127 1125 1208 2751 1208 1125 1202 
2255 341 1563 2287 2212 1672 460 3237 3605 
2447 720 3444 3229 1559 348 349 2405 1367 
1369 2404 2329 2364 2953 2962 2776 2792 900 
2775 3054 3049 3234 3061 2548 893 824 3155 
2057 1843 1842 3175 2017 1799 323 1994 2915 
2221 2186 2220 3301 2261 1636 2203 3564 293 
747 3405 3280 2106 2253 2285 1977 1873 1876 
1860 2304 1310 1373 2332 2661 3163 1038 1078 
2340 2339 1295 2310 2134 497 1779 498 2478 
1350 1407 1351 2498 332 2528 2482 2769 945 
999 955 3145 1044 1046 997 3371 2721 1124 
3235 3279 2762 601 628 2047 2015 1332 2016 
1374 1376 2125 1313 2001 1857 1832 1974 3600 
3450 698 270 2864 3158 2160 3175 2865 2030 
2032 2060 3171 1941 1578 3162 3231 182 752 
754 3557 3477 728 254 2636 1283 1282 1346 
3621 176 178 3497 2118 1317 1249 3240 2128 
2154 2253 2129 2314 916 971 972 2507 1029 
981 979 2190 910 844 846 2111 1591 414 
3294 2470 1535 1510 1512 3254 457 1752 2299 
3484 2586 1143 2558 3029 2560 2590 3030 13 
1727 3300 337 2799 649 572 612 3279 601 
627 628 3624 0 1120 246 2785 2749 2711 
2732 2715 2692 1011 3277 3444 2447 1144 1142 
3144 95 379 1924 3623 3527 1125 247 2635 
2662 2634 2685 3277 2642 1055 2669 2722 603 
611 650 1934 1853 1854 3257 1947 1550 1337 
1946 1980 1884 135 532 3378 438 1657 2717 
2842 1965 1952 1974 2973 2552 2983 3018 2710 
3067 3075 2689 2287 341 340 2286 3167 397 
398 1610 2902 2244 2243 2911 2537 803 726 
724 2198 2164 149 1566 3267 901 958 899 
2798 2773 2789 2800 3475 172 556 171 3431 
187 762 2772 2548 2486 824 747 2762 651 
602 628 2754 1114 838 2733 3560 298 757 
3422 2716 1058 1059 1096 3495 3333 595 3320 
3142 3062 3055 3134 2595 1495 1464 2567 2674 
1278 1277 2675 3559 3432 1630 277 1981 1989 
467 1964 1947 1968 1550 1946 3161 2156 777 
2157 3260 1102 1086 1103 3266 2280 1358 1415 
3314 412 1712 1711 2870 2861 2888 2122 2130 
2159 843 2158 2083 1659 1626 134 2951 2324 
2357 2325 2922 2921 3211 2232 2996 2446 2448 
2474 2850 3238 2020 2049 1763 2086 465 140 
2739 20 440 439 2777 584 612 581 1904 
1880 1878 1852 3268 1644 1645 290 2485 441 
1645 62 2459 443 442 1731 2016 1332 1390 
1392 2827 1908 1906 1894 1968 1336 1334 1394 
1934 1853 1868 1869 409 1984 408 3244 3535 
111 1823 510 1975 1874 1877 1976 3573 3461 
1163 230 2427 1558 349 350 2189 704 785 
706 2453 1457 1499 1458 3079 3076 2796 3082 
2504 2533 2534 2449 2207 2205 794 3186 1995 
1327 1329 1387 2764 3250 599 2779 3592 3152 
1646 2485 2639 895 828 897 2745 2744 620 
2724 2753 839 838 764 2679 2724 2700 2678 
3209 1568 1569 3217 3257 1831 1854 1952 1924 
1961 1941 1936 2855 2013 2001 2044 1975 1872 
2000 1974 2865 2116 2067 2092 3184 2286 1703 
1704 2485 2488 745 3152 3111 2929 3187 3261 
3330 514 1805 1883 2031 1840 1809 1841 2573 
2685 3023 2604 2575 1404 2541 2540 2657 2629 
1401 2621 2416 1500 1459 1458 3566 3186 715 
3432 2059 1822 1820 1851 2169 721 723 800 
2562 339 338 2563 2422 397 60 2421 2696 
1271 1199 2618 3254 1752 457 456 3204 2936 
2280 2247 3313 202 1674 1675 3098 2892 2900 
3101 3276 118 551 1886 3453 3339 1196 85 
1907 1792 1790 516 2155 1164 1243 1166 3123 
3124 3126 3007 2338 2245 788 2278 3596 3462 
1127 2708 2913 2176 3273 2914 2991 2430 3227 
2391 3306 376 375 1776 1987 673 142 674 
2037 1588 411 1589 3249 2018 2019 2050 2437 
1151 2502 3252 2262 808 806 2261 3168 3239 
2379 2416 3261 2938 2257 2929 3204 2248 2280 
3266 2259 1755 71 2239 2834 1970 1995 1996 
2304 2331 1373 2303 2640 3048 2641 3174 2488 
821 889 820 2385 1606 1604 423 2670 759 
2712 2643 2056 1843 2057 3175 2610 2638 1007 
2642 3133 3282 3081 3134 2240 1755 63 1754 
3009 2484 2517 3289 385 72 2289 1615 2202 
1605 1607 141 3212 1485 1526 1525 2407 974 
1024 2372 2217 1316 1246 1248 3430 1152 1150 
2278 2488 3268 820 2460 2607 2610 2638 1007 
2427 349 1558 1559 2668 2640 954 2641 2259 
2290 345 2270 2792 2793 898 831 2790 608 
568 569 1967 1945 1267 1946 1949 1329 1971 
1970 2847 1964 1989 1981 2296 1161 1240 2333 
3143 3118 3114 3109 3461 663 665 230 2975 
2953 2932 2332 3184 1703 421 1704 3592 292 
1646 3409 2239 2213 2240 1755 2322 347 1561 
346 2203 1637 141 3191 1961 525 526 135 
1978 94 381 380 2820 538 436 114 2649 
1132 1138 1199 2780 3271 642 647 3474 173 
1117 174 1277 2702 1206 1276 2697 1211 1128 
1130 2498 1555 1556 3223 3381 1138 1134 207 
2784 553 597 554 1940 1772 377 1771 1894 
1828 1790 1906 1937 1800 1833 1798 2424 432 
1730 51 2422 60 1606 2385 2286 340 1703 
341 2146 1250 2180 2117 2433 1065 2419 2394 
2760 3077 2776 3282 2707 813 811 881 3070 
3058 2694 3063 3262 3285 2468 2441 2531 3252 
3206 2502 3132 3126 3025 3174 2675 1278 1277 
1207 2757 2756 962 2734 2081 2133 783 2116 
3535 3341 1823 111 2320 1561 1562 2322 2422 
1608 60 397 2691 834 832 757 2747 68 
437 155 2117 1250 1171 1173 2151 2187 1421 
2186 2310 2280 1358 3266 3313 464 1762 145 
2208 804 802 725 3244 2037 410 2008 3172 
2178 2176 2914 1987 142 208 674 2564 402 
401 1694 3316 1346 1345 1402 2743 2765 637 
636 2670 3295 2712 2733 2643 449 1653 448 
2794 3271 627 642 3536 2649 55 3381 3287 
2601 2633 2997 2344 2372 919 2336 3161 775 
2156 3246 2175 2196 2118 3240 3436 707 706 
2219 1941 1579 372 115 2096 2118 1317 1319 
2219 707 706 786 2335 2185 2184 2150 2899 
3230 2187 2906 3397 2172 668 667 3460 2210 
667 666 1907 132 508 1768 3026 3267 2639 
2667 2972 2388 2383 2351 3351 155 591 2747 
3296 1737 1736 426 3017 3174 3037 3025 2447 
1142 1221 1144 2102 3303 1547 2075 3259 2373 
858 921 2471 2472 863 2444 1471 2187 2151 
3230 1959 3162 1718 3214 2717 1655 1657 301 
3535 2107 112 510 2572 2573 2685 2659 2042 
2012 146 2033 2153 1307 2150 2127 3221 2192 
911 2191 3306 375 374 1775 2839 3166 1940 
1957 1894 121 473 1895 3523 2754 768 3388 
1917 1853 1918 1934 2816 121 506 132 2884 
2227 2194 2226 2984 2419 2407 2977 2033 1776 
466 146 2927 2252 2251 3221 3602 2155 700 
3447 2345 2314 916 2315 2182 702 784 2183 
3304 2842 3257 1952 2182 780 700 2155 2281 
851 853 782 2482 333 1696 1698 2486 824 
749 3155 2579 952 893 2609 743 820 3268 
741 3612 3498 1811 3342 3061 2734 2753 3080 
1978 1883 1838 1802 3206 3216 2501 2469 1978 
1838 1805 1955 2931 2264 2235 2266 2754 765 
838 1114 2812 567 607 606 2809 607 568 
608 2439 454 455 1665 3584 3433 1628 2170 
2630 1451 1450 1399 1984 1986 409 1723 3265 
2600 2633 2660 2659 2706 2685 939 2475 720 
797 799 2405 2332 1308 2333 3476 171 1122 
2727 3435 3235 559 169 2386 51 1606 2424 
3536 3381 55 207 3271 628 627 643 2806 
605 624 2801 2593 1690 1693 3300 2241 1523 
1524 2218 2616 1034 1074 1076 2059 1822 1850 
2081 3519 3363 538 2820 3226 1505 1541 2223 
2371 2336 974 2372 3209 143 1569 363 3213 
1478 1430 1480 2152 1509 1511 1469 2245 1233 
1154 1231 3595 3463 714 261 2471 2375 3307 
2472 2351 65 336 2347 3111 2921 3261 3178 
2793 898 831 829 2729 1117 1203 1201 3194 
825 887 894 2785 2749 2729 2711 2567 1506 
1464 3242 3324 2752 1118 1120 3208 1276 1277 
1342 3272 2807 2797 3250 1960 3162 115 1941 
2010 1721 97 477 2440 1557 351 2467 2684 
2694 1040 3163 3024 2576 2599 2542 3578 3400 
761 2670 478 479 2755 2739 2739 439 440 
1656 3069 2783 2781 2799 3400 300 1654 1655 
3595 261 714 260 2504 2533 2449 2475 2373 
859 858 921 2755 2717 50 438 2031 119 
549 548 3376 2083 1821 2107 3536 207 1138 
3381 2561 41 37 1660 2625 2626 3207 499 
3448 700 702 268 2219 708 707 787 3540 
3436 1158 265 3294 415 414 2110 3454 2171 
1633 2169 1888 92 243 550 2457 1731 1732 
3000 2660 937 991 2684 2571 1216 1137 1136 
2659 2684 937 2660 2769 2759 999 3145 2039 
1584 1583 406 1904 1852 1878 1918 1957 373 
113 1773 2901 2168 3294 2167 1969 1991 1990 
1965 1948 320 1189 1191 2201 1593 1594 1607 
2359 3255 1037 1077 2110 1709 414 1710 2223 
1542 1505 1541 3196 2036 2008 2007 2137 1708 
363 362 2998 2454 2453 2480 2825 817 740 
738 2686 2663 1212 2687 2059 2081 1850 2061 
2294 986 1033 2293 3149 2152 2181 2147 1987 
2020 1988 3238 3308 1676 204 2093 2244 1312 
1314 2276 2416 1459 1500 2379 3471 2485 1645 
3268 2732 1273 2710 2709 2927 2941 2252 3200 
2045 2068 1328 1259 2282 784 853 854 2191 
911 848 2192 2190 909 844 910 2232 1607 
2201 1594 2356 942 880 882 3191 141 383 
1637 3224 2355 814 2390 3311 2200 1707 2165 
3211 148 382 1611 2444 863 861 923 3488 
216 1192 1927 1901 679 212 680 1907 126 
508 132 2398 2399 195 659 3297 1750 1749 
2440 2411 1223 1144 2412 2341 3266 1356 2311 
2529 1506 2532 3242 2500 1510 1512 2470 2903 
2897 2198 2919 3510 3338 23 2649 3476 2727 
557 171 194 664 2436 2437 2297 1668 458 
1669 2298 1753 2299 2330 2297 2299 1668 2329 
2745 638 640 2768 2907 3256 2222 2188 2310 
1297 1358 2280 2979 2996 3259 2448 2429 816 
884 2390 2257 1615 1598 2289 2866 2861 2888 
2870 2087 3209 1709 143 2550 3296 1735 2546 
3059 2651 2675 2673 3007 2483 2515 3008 3165 
2542 2532 2514 3182 73 463 1673 2179 1380 
2145 2178 2122 1382 1321 1322 3536 3381 1138 
2649 3194 2785 2711 2732 2752 176 555 175 
3024 2598 2542 2599 2711 1273 1272 2710 2511 
1349 1286 2538 2894 2885 2110 2111 3305 3296 
1737 2612 2259 2270 1755 2239 2307 2185 2189 
2308 2184 1303 1366 1305 2307 784 854 785 
2228 2255 1564 3232 2645 2614 3270 1093 2896 
3313 3197 3159 2816 505 121 1908 2521 1089 
2522 2492 2353 1729 1728 69 2520 1002 1050 
2491 2392 942 998 996 3316 1402 1345 2665 
2679 2745 2681 2725 2680 2747 1623 2701 2804 
752 829 3231 2784 598 597 624 2663 1212 
1213 2662 2708 1129 1210 1212 2006 3151 1574 
1573 1919 1830 1878 1906 3162 3171 1577 1578 
1891 116 681 124 1888 243 684 1889 1901 
683 679 680 1906 1828 1792 1830 2477 2509 
1218 2476 2473 978 2445 2446 3605 257 1142 
258 3605 3444 720 258 3254 2401 1751 2366 
2950 2290 2320 2939 2923 2932 2237 2305 2405 
1308 1306 2333 2501 1300 1298 2502 2138 3209 
1709 2110 2586 41 2561 3274 2655 2677 616 
2742 2885 3314 2088 2111 2915 2977 2336 2905 
3291 1021 1020 1062 2394 1100 1099 2360 1971 
1995 1329 1387 3238 1324 1256 2020 3301 283 
1635 1636 2354 2428 1643 3263 2413 1291 1221 
1289 2489 948 947 888 2353 2389 62 1729 
3266 1358 1413 1415 2511 1350 2478 2510 3304 
1929 1913 1928 3423 1969 1189 321 3246 693 
773 2077 2269 2240 63 2271 3145 1046 1044 
2737 2665 1397 1345 1395 3385 2436 659 235 
2241 1523 3225 2274 1417 2221 1419 3256 2848 
1959 3214 3162 2070 1440 1384 1385 3278 928 
930 984 2386 1604 1606 51 2460 888 818 
820 3000 1731 1732 443 3590 2475 722 3468 
3588 259 718 258 1988 1989 1679 2012 2041 
205 671 3308 2139 1591 1603 1601 3301 806 
727 729 2261 808 729 731 2079 2058 1849 
3302 2837 1936 1960 1955 1958 368 1983 369 
1919 1878 1904 1906 2612 2611 1736 448 2878 
2868 2869 3220 1939 2839 2831 1940 3221 911 
910 2191 3127 3004 2529 3021 2103 1431 1429 
2073 2756 2734 2753 906 3024 2514 2542 3165 
2504 2447 795 797 2506 925 981 2505 2569 
931 869 2568 2431 1047 998 1000 2197 860 
913 850 3252 192 193 657 2159 771 772 
842 2159 843 908 842 3622 3499 326 3350 
2175 3240 3280 2196 2068 1257 1326 1259 2330 
1753 1752 347 2398 2364 2363 56 2441 1472 
1424 2403 3471 291 1645 2485 2354 814 816 
2390 2730 883 2750 2731 2708 738 815 817 
1886 544 129 87 2814 1889 1893 1891 3396 
317 1787 1789 1892 244 682 684 3551 3396 
1195 1902 3375 2428 741 3268 3187 2991 2391 
2430 2429 818 739 2428 3059 2620 2651 2650 
2710 1339 1279 1272 2658 1341 1275 2682 3525 
3407 572 188 72 385 2289 3193 2428 1644 
289 1643 3224 287 737 735 2828 2826 1899 
2827 2022 1491 1531 1490 3363 104 538 114 
3386 2078 1818 310 2966 3168 3239 2379 2939 
2255 2287 2948 3176 2198 495 358 1069 2448 
1068 1027 2515 2528 1695 2482 2670 2644 2643 
2712 2467 352 351 3297 2915 2967 2221 2220 
2011 142 206 1679 2109 1762 1763 145 2211 
2236 200 2210 2296 3228 197 662 2024 1519 
1531 1493 2192 2917 2252 2225 2001 1832 1990 
1974 2253 3280 847 776 2250 3309 1015 3291 
2661 1078 1036 2646 2466 54 453 1663 3579 
237 1149 238 2746 2765 648 3271 2772 610 
572 2799 2588 1294 1292 2587 3132 3007 3025 
3126 2064 3169 1570 2084 465 2086 2063 140 
3336 9 19 159 2790 2805 568 2809 3464 
2537 726 724 1917 1905 1852 1827 3168 2416 
2452 2453 2041 205 206 672 2177 2181 1525 
3212 3161 2076 775 3246 2857 2000 2002 2027 
2000 2001 3175 2855 2414 1352 1353 1289 3067 
2683 2689 2704 3143 3109 2939 3137 3137 2933 
2939 2924 3005 2481 2470 2454 2450 2568 2476 
2533 3558 2618 653 3398 2822 40 1766 4 
1980 93 1884 117 1931 1793 319 1791 3511 
77 102 3362 2816 1894 1768 1907 2205 796 
864 794 3293 934 932 872 3191 1638 383 
382 118 542 1886 1887 3453 682 244 85 
2292 2291 808 2262 2130 773 2077 3246 2130 
691 772 689 2175 1247 1170 2142 1251 2118 
1257 1319 2547 891 822 823 3592 3409 1646 
3152 3409 292 746 745 2683 1340 1275 2658 
2702 1206 1205 2721 2804 829 2793 3231 2097 
1383 1384 1439 3209 2084 1570 3169 2876 2062 
2063 2085 3159 3203 3313 2109 3461 2267 665 
663 3153 2523 2536 2507 2332 1310 1371 1308 
2177 2176 1484 2214 2834 1921 1939 2831 1952 
1854 1869 1870 2402 2366 1761 2401 2767 637 
647 640 2222 1417 1465 1467 2857 2908 2157 
2875 2846 1977 2003 1976 2010 514 531 97 
3611 3490 503 2755 3352 2755 483 438 3513 
3352 766 245 3057 3277 2669 2642 3079 2768 
2767 2782 2598 2542 1494 2567 3080 2798 2781 
2768 3038 1733 3155 2487 2194 841 842 907 
2250 1015 1016 3291 3286 1529 1530 1549 3482 
3189 1808 2095 1988 1679 142 2011 2033 2062 
1776 1777 2072 1323 1324 3247 2486 3000 443 
2459 2459 1647 443 1648 2289 1617 1615 1598 
2411 795 793 2471 2608 895 893 826 2347 
1702 65 1701 2510 2477 2600 2509 2388 1560 
336 2351 2369 1426 1428 2367 2756 839 906 
2753 2699 34 31 493 2251 967 1018 1017 
3259 2373 921 2410 3306 1775 374 1774 2588 
1294 1355 1292 3471 2485 743 291 2662 1212 
1213 1131 3377 737 739 2354 2391 884 2390 
2430 3261 72 1613 1615 2271 458 1754 63 
2523 1029 1070 1071 2967 3256 2247 3204 3299 
2554 2584 1091 3049 3026 3267 3068 2727 1121 
1122 1205 2682 1276 1275 1205 1902 1787 1881 
1826 3084 3158 2916 2871 1991 1189 1263 1265 
2827 1904 1906 1919 2090 2205 796 2204 3314 
1711 1712 2035 2204 796 866 2205 2660 933 
2632 2600 3043 2723 2726 2625 2813 547 540 
87 1939 1956 469 1943 3561 3411 1188 1942 
3421 1787 1785 1897 2851 2047 2015 2045 2227 
912 963 964 3482 2095 1808 304 2046 1259 
1185 2017 3250 630 641 625 3235 1124 1206 
2721 2698 2697 2672 1211 2727 1205 1122 2721 
2785 597 553 596 2723 613 611 629 3315 
1226 1147 1149 2768 634 639 646 2715 2735 
1115 1013 2794 644 641 2797 2092 86 395 
1659 3246 2158 775 2156 3550 3387 701 313 
2083 134 106 2082 3613 2119 687 3380 2044 
1801 1837 2048 3189 2160 769 771 2682 1341 
1275 1276 2774 2791 835 2773 1937 1855 1833 
1836 3481 2790 760 185 2532 1506 1533 1532 
2423 1606 1608 432 2505 2413 2534 2978 1889 
684 681 90 3083 21 2681 2725 3495 150 
480 3322 67 36 3207 501 3235 1124 1126 
1207 2655 580 616 2677 2653 2622 344 1580 
2697 563 167 561 2626 2652 1661 2592 2842 
1945 1966 1967 3291 1020 1060 1062 2158 844 
909 843 2048 1803 2095 2069 2273 1482 1481 
1434 2395 1066 1065 1100 2016 1390 1446 1392 
2479 1457 1407 1406 3071 2715 2714 2735 2518 
3152 821 2488 2426 442 1730 1731 2548 2459 
3000 2486 3155 1650 1649 445 1923 1767 378 
128 1917 3257 1853 1934 2029 2058 1867 2030 
2067 1625 86 1624 2916 2863 2193 3158 2043 
206 1678 2011 2043 205 1678 206 3321 2815 
530 546 2844 2835 1947 1951 3256 2188 1467 
2222 1913 1905 1827 1826 1904 1828 1878 1880 
1903 1268 1914 1916 2891 2134 2164 2135 2661 
1038 1036 1078 2182 784 782 2281 3529 2677 
61 3354 3274 2561 1660 41 3363 104 1882 
512 3363 512 538 104 2040 433 100 1582 
2678 2654 2724 587 2679 405 66 1689 3228 
1238 1159 1161 3043 2742 2726 2746 2655 2726 
614 3207 3245 971 1021 2381 3225 1541 1542 
2223 3217 144 1569 2084 3225 1521 2306 2302 
3217 364 144 2085 3159 2108 2085 2086 3094 
2859 2876 3198 3186 794 715 717 3027 2584 
2553 2583 2330 1752 1753 2299 2299 458 1753 
2271 2613 1054 1006 2638 3236 1588 1587 3244 
2325 940 938 878 3236 3244 1587 1586 2314 
971 916 915 2034 375 1571 1572 3593 219 
675 3384 3325 2755 478 161 3197 1762 464 
1759 2216 2243 1316 1379 2332 1371 1373 2331 
2277 1312 1310 1242 1757 2213 1756 460 1958 
1575 370 3310 2432 1045 1086 1085 3367 287 
735 286 3590 256 1140 257 2412 2376 1291 
2413 2215 1435 1434 1379 2164 495 149 496 
3582 2093 1175 3308 1757 3237 2213 460 2129 
1243 1166 2155 3530 3457 1172 273 2175 2118 
1249 3240 3191 1607 383 141 2902 2217 2243 
2244 2083 2107 123 1626 2486 1732 443 3000 
2518 2552 890 2551 2349 1602 1604 2350 2353 
69 396 1729 2629 1400 1401 1452 3371 3235 
558 2721 2721 1124 1122 170 2782 2767 646 
2768 2630 3045 2657 3062 2527 355 1553 354 
2415 2379 1459 2416 2613 1053 1054 3270 2551 
950 951 2582 2964 3213 2306 2334 1541 3225 
3290 3226 3376 127 123 2107 2819 2005 136 
137 2737 1096 1059 1084 2681 405 1621 2656 
3083 2681 21 331 2231 418 1595 417 3191 
1638 382 3211 3191 3211 382 1609 2355 812 
880 2323 72 2289 3261 3193 2357 940 994 
2325 2101 1321 1322 2122 3218 2228 1565 2198 
3261 1613 148 3211 2386 51 396 1604 2389 
62 2485 3268 3268 743 741 290 3161 1816 
1847 2078 2077 307 308 691 1919 1855 1833 
1937 964 2285 2227 912 2015 2014 1263 1991 
1031 2284 2316 2317 377 1576 1958 1575 3330 
514 531 2010 2005 136 125 108 2457 431 
1608 3167 3554 3409 1647 292 2628 403 2593 
2627 3556 3414 1652 297 3082 3076 2775 3282 
3049 2643 2712 2691 2801 624 604 605 1891 
1896 124 213 1927 1266 1190 1192 3488 1927 
1192 1901 3072 2795 2784 2801 2639 828 830 
897 3082 3076 2774 2775 2798 634 639 2768 
2773 837 762 760 3456 2363 661 660 2369 
2405 1369 2404 2469 1232 1153 2436 3483 181 
564 2804 2622 2623 45 2654 2073 1431 1429 
1479 2884 3280 2227 2285 2043 2041 3308 205 
3568 222 673 221 3308 204 1676 1677 2145 
1381 1321 1382 3094 3098 2904 3172 2198 495 
149 2164 3408 236 658 664 3586 2437 1153 
2436 3256 2187 1469 3230 2521 1049 1089 2492 
1989 1679 467 1680 1909 471 1770 472 3208 
1399 2630 2631 3080 2766 2781 2680 2781 618 
639 649 3060 2651 2675 3059 2139 387 1601 
1603 3286 1549 1519 1517 2235 934 874 2265 
1997 2021 1443 1972 2826 1916 1896 1914 2369 
1371 1426 1369 1919 1935 1855 1936 2409 859 
861 791 2338 789 858 2373 3336 2677 19 
9 1907 506 1780 509 2815 521 1782 315 
1886 520 1783 1781 2791 835 758 833 2680 
14 434 2719 2778 600 626 627 2605 1403 
1402 1453 3549 2172 1169 3397 2141 202 1674 
3313 2657 1342 3208 2674 3145 2759 1046 2737 
3298 2499 1420 3283 2629 1452 1401 1412 3576 
3459 666 229 2822 2696 2652 2722 3505 163 
488 3335 2722 2741 603 2740 3069 3295 2718 
2754 2641 954 953 2640 2987 3157 3283 3262 
2544 1616 1614 400 2549 2608 751 828 2213 
2240 459 2238 3213 1480 1430 2301 3438 3378 
763 2717 479 478 2755 33 2717 761 301 
763 3288 2034 3306 3198 2004 1873 1861 1867 
2060 1848 2061 2030 2252 980 968 924 2417 
1499 1536 1500 2583 2553 1052 2584 2568 931 
869 929 3224 1642 287 1641 2510 2571 1217 
2509 2141 2117 3313 2180 2686 813 2731 2708 
2575 1404 1347 1403 3201 2981 2420 2999 3311 
417 1707 2200 2618 40 652 2649 2217 1246 
1169 1248 3043 2625 2624 2590 2990 3289 3167 
3009 1358 2340 2310 3266 2342 3222 1460 2378 
2248 1417 1360 1415 3437 1154 1152 2278 2814 
84 1688 1890 3327 523 1784 1887 1901 1192 
1268 1916 3555 1892 682 3389 3542 3389 1194 
214 2788 560 555 179 2679 1691 13 2623 
2628 403 404 1620 2679 2681 1689 2725 2103 
1477 1429 1427 2500 1468 1510 1508 2921 3311 
2232 2910 3616 517 1794 1907 2229 2256 1705 
2254 2518 949 2552 2519 3117 2962 2963 2987 
2813 1782 129 1888 2432 1047 1087 1086 2434 
1067 1066 1101 2136 363 362 2137 2790 2773 
2791 2809 3295 450 1739 44 2809 632 607 
608 2781 622 639 618 2753 838 905 836 
2340 1356 1295 1293 2221 1362 1301 2246 3539 
3430 712 262 2444 2445 861 2409 3539 262 
712 261 2782 2796 645 2767 2700 621 589 
2745 2819 1724 100 137 1961 95 525 135 
2814 1688 84 116 3246 2158 773 775 2175 
1172 1170 1249 2077 691 693 773 2195 3158 
2884 2194 3286 1517 1547 1549 2601 985 987 
931 2185 1305 1235 2184 2874 2882 3188 2884 
2219 2184 1235 1303 2591 2626 37 2592 3335 
488 47 163 2641 1007 953 1008 2472 925 
923 979 2310 1297 1295 1358 2313 787 786 
856 2409 922 861 859 2077 691 308 693 
3161 775 695 777 2941 2317 2284 3278 3257 
1793 1829 1831 2517 3289 429 2546 3289 431 
1610 430 2999 2456 2483 2484 3242 2499 2529 
1466 3296 428 1735 2546 3289 1610 3167 2484 
1987 1988 142 3238 1996 1325 1327 2018 3373 
3207 577 6 2012 1678 146 466 3218 1566 
139 1567 3098 2876 2866 3159 2146 1320 1250 
1252 2302 1480 1481 1521 3197 464 1762 3313 
2002 1865 1875 2003 2316 1062 1073 1097 2371 
917 973 918 2853 1971 1972 1997 3092 3091 
3150 3088 2304 1373 1312 2276 2259 2287 1563 
1562 2290 346 345 2270 3607 271 1170 272 
3457 1170 1172 272 3591 2119 1174 3530 3568 
3417 1180 221 3415 3238 1178 1180 2788 819 
825 748 2785 2802 596 2786 2804 752 181 
750 3567 237 1151 3452 2053 2055 2073 1444 
1926 1683 91 1682 1954 1871 1976 1953 1974 
1832 1856 1857 3228 1306 1238 2333 2800 2790 
608 2809 1742 2626 2652 42 3489 166 563 
2696 2721 1205 1122 1206 3584 2170 1628 2115 
2204 798 796 719 2090 3186 3236 392 2545 
1616 1614 2544 3267 2691 901 899 2670 1654 
450 1655 3562 300 759 299 2768 2744 2767 
640 2589 1552 1553 355 3250 2797 641 631 
2527 1553 355 2589 3371 3235 1124 169 2622 
1580 45 1552 2816 1907 1780 1920 3326 533 
131 96 1898 1905 1880 1904 1906 1790 1792 
1828 1903 1196 1198 1194 1196 2815 1903 1198 
3500 2815 527 3339 1892 130 683 1901 2284 
1018 982 1031 2054 1429 1477 1479 2908 2157 
2192 2191 1984 1716 1715 1723 2127 1370 1309 
1307 1889 684 213 681 1933 1947 1393 1335 
1886 520 129 544 1898 1881 1825 1880 1886 
544 87 543 1900 1916 1901 1896 2457 1731 
432 431 3193 148 1639 3211 2286 1704 341 
1703 2699 2654 585 2742 2589 1745 35 355 
3043 2590 2624 2622 1948 1831 1793 3257 1831 
1948 1793 1795 1919 1833 1830 1920 2907 3256 
2152 2906 2308 918 856 855 2189 1160 1158 
1237 1904 1918 1905 1852 1891 1894 1686 1895 
1893 1784 1825 1824 2851 1992 2016 2856 1897 
1198 1197 1903 3275 10 17 1744 585 587 
2724 2654 3508 154 475 3361 2537 1137 1217 
1139 2771 894 885 2770 3075 2665 2664 2688 
3399 2749 1116 174 3301 2262 2261 2203 2020 
1324 1256 1325 3593 1962 1184 3384 3415 3238 
673 672 2138 363 2137 1708 2326 994 992 
2325 2958 2348 2385 2349 3042 2623 3300 2622 
3023 2684 2706 2659 1215 1135 2634 1214 3580 
255 1137 3464 2276 1312 1314 1375 2854 1999 
1998 2023 3310 1716 370 1715 2316 1031 1073 
1061 3524 3390 733 286 2089 1599 1590 2112 
3383 2208 727 3301 2226 1015 965 2250 3281 
2102 1529 3286 3300 1690 1693 338 2812 2807 
607 2808 2760 1012 957 1010 3481 185 569 
2790 2316 1062 1060 1061 2432 2985 2393 3260 
3151 2006 1574 3166 2899 3149 3303 3230 2045 
1263 1330 2015 2646 2616 1036 3287 2076 693 
309 695 2078 1816 1818 310 3287 1034 1036 
987 2686 1212 2708 2687 2661 1036 989 2633 
3162 3310 1577 3171 3186 393 392 1629 2225 
924 864 3243 2942 2291 2922 2951 3554 292 
1647 293 2320 2347 65 2351 2987 3195 2962 
2953 2536 983 981 1030 3568 1987 673 3238 
3578 301 761 300 3325 2739 478 2755 2755 
479 50 2739 2654 17 360 1744 2678 2724 
589 587 2548 892 2579 2578 1888 1782 129 
1781 3511 3362 102 1894 3511 1894 1788 3362 
2803 825 750 748 3272 3067 3072 3183 2627 
3300 1690 2593 2592 16 1661 37 2726 2723 
614 3207 2560 1747 2527 2525 2618 2672 2648 
2592 330 331 2824 3083 2777 612 584 2783 
3080 2768 2781 2766 2712 834 903 2691 2691 
834 903 901 2972 2320 2347 2957 2791 2805 
2808 2812 2277 1242 1165 1244 2923 2237 2277 
2305 2332 1373 1371 1310 2346 1063 1097 1098 
3215 1597 1588 1589 3301 729 727 283 1978 
531 477 2010 1960 1720 380 115 2927 2916 
2908 3221 3244 1587 1586 409 2770 1113 894 
885 3231 2812 606 2811 2093 670 204 3308 
1987 1256 1180 1182 2075 1515 2104 3303 2967 
2936 2373 3259 3015 3241 3153 3199 3225 1542 
1541 1523 2321 1600 384 1617 2354 737 739 
816 2165 1707 139 1717 2489 888 889 948 
2907 2188 2152 3256 2408 2434 2418 1025 2790 
835 758 2791 3078 3042 2765 3053 2798 2772 
2753 2799 2865 2163 2133 2116 3317 97 476 
108 1809 1811 2005 2031 3270 1093 1110 2647 
2780 642 644 647 2614 1093 1053 3270 3036 
2605 2599 2576 2776 898 900 2792 2695 2671 
1111 2694 3567 3452 658 237 3567 3452 1151 
3252 2193 908 909 965 2294 3284 1035 988 
2879 3186 2205 2207 1968 1447 1550 1394 3166 
1576 113 1574 2515 2544 400 2543 2529 1468 
1508 1466 1080 2647 2671 1110 2558 2587 3253 
3274 3579 3452 1149 237 3297 455 1749 1750 
2531 2566 1296 2530 2320 2351 65 1561 2922 
2921 2232 2910 2492 1049 1048 2463 2134 1779 
497 361 2164 2135 1566 3218 2622 2590 35 
2589 2857 2156 2908 2916 2195 2194 2227 907 
1328 2045 2047 3258 2001 1974 2000 1863 1990 
1797 1832 1834 3280 776 845 847 1894 1788 
1790 1828 3384 219 1186 1184 3411 218 676 
677 2835 2828 2829 2843 2608 826 893 3155 
2581 1736 1735 3296 3354 158 583 34 3354 
34 61 158 2647 1078 1109 1110 2369 1424 
1369 1426 2495 1748 54 2525 2240 1670 459 
2238 2466 2495 454 453 3013 3274 2587 3029 
2105 2127 2883 2890 2158 775 844 773 3205 
2955 2947 3291 1999 1493 1491 1448 1913 1902 
1905 1826 2850 2020 2018 2049 2190 846 844 
2156 1925 1942 1262 1949 3416 2078 1816 2076 
3386 310 697 2078 2013 1990 1834 1994 2098 
1384 1383 1323 2042 2011 1678 2012 2594 2628 
403 2593 2723 2676 613 3207 3174 2715 3277 
2692 3029 3274 2591 2560 2798 2782 634 2768 
2259 71 1581 3232 3117 2962 2401 2963 2821 
537 112 2107 2759 1046 1059 1012 2304 1373 
1310 1312 2305 1163 1242 1240 1756 494 2239 
3176 2309 2278 1229 2279 2936 2279 2410 2310 
2220 1233 1301 1303 2254 1704 342 341 3159 
3197 2134 2109 2912 2911 3237 2903 3260 1086 
1085 2432 2179 1380 1320 2145 2164 1566 361 
149 2145 1380 1320 1381 2094 2898 2180 2146 
2094 2146 2180 2117 3381 32 55 207 2813 
129 522 547 3555 3453 682 1892 1891 124 
681 213 2563 338 1693 339 2691 832 834 
901 1560 2351 2322 1561 3199 2379 3222 2378 
1813 2032 1845 2820 2389 62 1729 441 2961 
2362 2361 2974 2488 743 821 820 3263 452 
1644 1643 3074 2762 3279 3271 3435 3235 1126 
2698 2780 2767 645 2796 3271 627 628 3279 
1742 2652 1741 42 3193 72 385 70 3187 
3193 3261 2289 3267 899 958 956 3296 1618 
427 1616 3305 426 1737 3296 1078 1080 2647 
3163 2401 2427 349 1761 3297 1760 352 1749 
2330 1752 348 347 2405 1306 1369 1367 3546 
221 674 220 3449 2662 734 732 2782 2768 
646 634 2790 2791 758 2805 3234 2719 14 
2680 1765 2748 2747 2719 3076 2773 2798 2800 
3300 1552 1553 2589 3382 2822 1766 4 3479 
2698 1128 2697 2307 2315 854 2282 2219 1233 
1235 1156 2307 2183 2189 2153 3552 216 1190 
217 2737 1084 1059 1046 2667 897 899 3267 
2484 398 1610 3167 1557 2440 2458 2467 1920 
1794 1796 1830 3098 2914 3172 2913 2287 340 
341 1563 2711 1201 1203 1272 2811 2792 831 
3231 2542 1496 1532 1533 2120 1438 1439 1486 
3197 2134 497 2164 2241 2218 3225 1523 3297 
1749 455 454 3021 2499 2529 3242 1163 2296 
2305 2267 3569 233 660 3456 2296 3228 2333 
2268 2364 1667 195 2365 2283 1060 1016 1017 
2917 2225 2197 2887 2443 3285 3239 1514 3012 
2524 2523 2494 3315 192 191 1663 3315 192 
657 656 1969 1994 1797 1990 3617 3380 1179 
3499 2226 964 1015 3309 2044 2001 1858 2013 
2870 2861 2122 2101 2948 2318 2287 2320 2179 
2215 1379 1380 2895 2930 2139 2901 2626 3207 
2676 2723 2819 100 1724 2009 2005 548 125 
137 3612 3342 119 3498 1993 1392 1394 1334 
1900 1684 472 1685 2830 1924 1923 2833 1953 
1935 1868 1934 1961 1838 1836 1802 2010 1720 
136 476 2694 2684 1040 2705 3293 2209 872 
802 2112 1601 1599 1590 3294 2166 415 2138 
2702 3208 1277 3235 2721 557 558 170 2801 
597 624 2784 2688 1281 1395 2664 2729 1201 
1203 2711 3058 2671 2647 3270 2698 1126 1209 
1207 1949 1262 1970 1942 3384 1184 1186 1962 
3238 142 206 2011 2898 2904 3159 2896 3538 
3415 1178 222 2116 2092 86 2067 2025 1444 
2055 2053 2869 3244 2037 3236 2357 940 942 
996 2146 2117 2093 1173 2142 1245 1247 1168 
2196 776 845 3280 2253 2142 778 2154 3457 
272 1172 273 3066 3062 3134 3183 2767 647 
645 646 3129 3124 3019 3007 2065 2087 365 
3169 3212 1525 1526 2181 2834 1995 1971 3249 
2168 1603 2139 3294 2469 1230 1153 1232 2619 
1220 1222 1290 3177 2301 2303 2275 1986 1715 
1723 1984 1951 1550 1393 1947 3496 2676 488 
3337 3373 162 67 6 3344 10 1744 31 
2677 19 61 356 3256 1469 2152 3230 2036 
412 411 1712 1986 1714 409 1723 2284 2252 
1018 2251 3169 1571 366 1572 3260 1085 2396 
2393 1986 409 1714 2008 1919 1830 1855 1878 
1929 1915 1945 1269 1954 1936 1859 1871 1898 
1828 1880 1825 2294 3269 1033 1035 2169 723 
721 280 2263 932 988 986 1413 1463 3290 
3266 1463 1413 3290 1462 3588 3470 718 259 
2444 2409 2339 2445 2622 344 1580 35 2698 
559 561 168 2543 401 1695 1694 2973 2959 
2489 3001 1964 1681 468 1943 2318 65 1702 
340 2367 1476 1426 1428 2935 2275 2242 3177 
3269 2955 2316 2346 3209 2087 1570 143 2913 
2241 2214 3202 2360 1079 1081 1100 3148 1370 
1368 1425 3379 306 688 305 2128 2129 1245 
2154 2284 1061 1018 1031 2821 703 783 2081 
2107 122 528 123 1658 3185 2115 1628 2115 
1658 275 1627 1907 517 516 126 2302 1521 
1481 1522 3332 520 1783 1886 1890 534 75 
84 1890 1788 1786 519 3087 3084 2857 2916 
3281 1488 2100 2071 1950 1971 1331 1391 1943 
468 469 1681 2747 591 588 155 2747 437 
68 24 3075 2664 2665 3316 3462 2708 1129 
1127 3248 957 1010 2760 3134 3272 3282 3081 
2786 2802 596 562 2339 1225 1295 1227 3015 
3307 3199 3181 3444 2447 720 718 3137 2924 
2954 2933 2416 2452 2453 1458 2535 3146 983 
2536 2534 867 927 929 2498 332 53 2528 
3516 1894 508 3362 1907 1920 1792 1794 3298 
1416 1359 1361 2629 1451 1400 1452 2440 351 
1557 350 2234 806 874 804 2959 3263 2429 
3187 2361 1041 1081 2327 2323 878 880 2324 
2338 920 858 857 3436 1158 1156 2219 3302 
1818 1847 1849 3161 2076 1816 2078 2857 2002 
2003 2028 3221 968 911 2192 1965 1856 1832 
1831 2158 844 775 2156 2271 63 1754 2240 
3254 2299 1752 2330 2328 1667 56 2364 2953 
2406 2364 2328 3208 1276 1341 2682 2708 736 
815 738 2808 631 607 632 1304 2442 1365 
1367 3235 559 169 558 3077 3145 2759 2769 
2697 2696 650 2722 2740 602 2762 2741 3298 
1420 1418 1363 2734 2712 903 2713 2696 2649 
2652 2592 2612 1736 1737 448 3523 2755 768 
2754 2213 1757 1756 3176 3184 1703 2286 2318 
2417 1458 1499 1500 3197 497 496 2164 2677 
61 19 9 3144 93 1884 1980 3210 2031 
2032 1841 2857 2157 3302 2875 2808 2805 607 
2812 3053 2744 2768 2745 2536 1030 981 1029 
3591 3374 690 274 2119 2118 770 3190 1946 
1336 1550 1337 1946 1550 1336 1968 2171 2209 
802 2208 3112 3199 3181 3153 2180 1250 1318 
1248 2891 2135 2164 3218 2888 2144 2122 2121 
2108 1779 498 2134 2678 1692 17 39 2514 
2532 1533 2542 2667 2581 2611 2580 3343 161 
33 2755 2798 610 2789 2772 3318 479 440 
20 3080 2756 2734 2753 1932 1912 1900 1927 
3552 217 678 216 1983 3310 1715 1986 3347 
515 1807 1806 2192 848 913 911 3292 2848 
2009 2858 2742 635 617 616 2573 2574 2539 
1348 3163 991 1038 1040 2510 2571 2509 2600 
3477 254 726 728 2602 805 2572 807 2686 
811 734 2662 2538 2572 2571 2632 2676 1742 
47 490 2419 1065 1023 1064 3169 2035 1572 
366 3284 990 1037 988 3038 2640 3048 2609 
2686 2708 736 813 2688 1339 2689 2666 2730 
943 883 881 2738 2736 1059 2716 1917 1918 
1852 1905 2115 275 713 711 2956 2941 2284 
3205 2252 924 968 2225 2745 620 638 621 
2823 1743 38 2700 3543 1979 108 2010 2292 
876 936 2265 3191 2323 2922 2291 1639 1642 
3193 3224 3316 1346 1402 1403 2540 2513 1455 
2541 2664 2636 1345 3316 3061 2712 2753 2734 
2688 2730 2750 2731 2702 2727 1205 2703 2702 
2682 1205 1276 3371 169 558 3235 3054 2627 
2628 3044 3131 3062 3041 3045 2822 1766 40 
2649 2586 654 241 653 2586 1143 1220 1141 
2822 2649 2652 2696 2696 1130 1132 1271 2626 
1661 37 2592 3425 3246 1815 2077 1997 1443 
1442 1387 2816 1906 1907 1920 2959 2352 2321 
2353 3583 3377 737 288 2935 2303 3177 2954 
2174 3237 73 3182 1566 2135 1567 3218 1918 
1878 1868 1852 1917 1853 1852 1918 3583 288 
1642 3377 2392 998 1045 996 2229 343 2228 
342 2392 998 942 3227 3211 382 1609 1611 
2256 1705 420 419 2046 1185 1994 2017 2000 
1874 1864 1872 3160 2052 3286 3281 3519 2820 
538 3355 2748 1765 2747 486 1765 1764 2748 
2719 2887 2162 2163 2197 1974 2000 1863 1872 
1751 3229 348 349 1974 1832 1990 1965 3476 
2727 1122 2721 2778 626 600 2764 3476 2721 
557 2727 3117 2963 3114 3109 2333 1308 1238 
1240 2404 1367 1369 1424 2933 2271 2269 2943 
2125 2129 1313 2106 2253 847 778 776 2398 
3195 2436 1234 3586 236 1153 3408 2560 1747 
1745 355 2427 1557 1558 350 2400 455 1666 
1665 2601 2600 2568 931 2502 1300 1298 1230 
3574 297 753 296 3061 3069 2753 2733 2718 
1764 439 44 1999 1531 1491 1493 2316 1073 
1062 1061 2263 930 932 986 2423 2983 2971 
2424 3138 3085 3101 3120 3504 1920 1794 3326 
1920 1792 1794 1830 1931 1945 1267 1966 3396 
317 1195 1197 3548 3421 1787 316 2790 2789 
760 2773 3544 2754 574 3388 3531 2649 565 
2696 2696 2592 2652 2722 3194 827 896 2793 
2792 831 900 833 3438 2717 438 3378 2225 
862 913 860 2818 1722 136 1720 3292 406 
1726 407 3152 2459 442 2426 2457 432 2424 
2423 3176 1757 1756 494 2468 1472 1512 1470 
3226 1504 1505 1463 3458 2296 663 662 3572 
226 1171 227 2517 430 429 3289 2576 1548 
1454 1453 2182 700 780 782 2564 402 1693 
2593 3294 414 415 1592 3467 3301 729 2261 
2878 2886 3220 2869 2432 1086 1087 2465 2267 
2305 1163 1242 3197 496 497 1759 1994 1834 
1797 1990 3423 321 1795 1969 2882 2106 2285 
2125 1969 1797 1795 1832 2147 1511 1544 1545 
2165 139 1707 362 3604 266 1160 267 2495 
453 54 1748 2716 1096 2737 2693 2366 57 
1751 456 2622 45 2653 2654 3445 1133 1135 
252 2715 1115 2735 2736 1202 2752 1123 2751 
2825 1208 1125 2751 1929 1195 1269 1270 1929 
1914 1270 1930 1906 1828 1878 1904 2586 2561 
41 2618 3306 2062 376 1776 2098 3247 1384 
1323 2880 2070 3247 2850 1940 1771 120 1922 
3212 1527 1487 2100 2588 1292 2620 2587 2560 
462 1747 2525 1919 1937 1833 1920 1938 131 
524 535 2207 862 792 794 2067 2039 2865 
2092 2078 1847 1818 1816 138 2039 2040 2067 
2968 2345 2382 2969 2384 423 60 2385 3213 
2301 1430 2303 2498 1556 1557 2467 3258 1317 
1326 2096 2142 776 778 696 3202 3204 3226 
2222 2175 1249 1247 3240 3478 694 692 2175 
3188 2106 1376 3240 3256 1467 1419 1417 2074 
2104 1475 1427 3192 2102 3303 3149 3042 2746 
2765 2743 3521 2655 504 3370 3526 3207 67 
2655 3273 1482 1435 1483 2554 2520 1051 1050 
2370 1516 3239 3285 2388 2351 336 2383 2965 
2367 2331 3213 3263 452 1643 451 2457 1608 
432 2423 2463 1001 1049 1048 2315 2314 853 
2282 3602 269 700 268 2747 588 11 155 
3180 11 487 68 2747 155 11 68 3509 
2739 478 3325 2599 1449 1450 1453 3023 2684 
2705 2706 2688 2687 2664 2731 3395 321 1187 
1969 3395 1969 1187 1994 1994 1797 1834 1799 
2884 2195 2096 3158 2855 2045 2014 2046 2101 
1177 1254 1253 2834 2841 3249 2838 2834 1996 
1944 1970 2496 3013 2495 2525 2570 983 985 
929 3155 444 1733 445 2935 3177 2303 2275 
2271 458 1753 1754 2777 49 22 157 2753 
839 906 905 2829 1932 1950 1949 2241 1524 
1523 1483 2064 1571 375 376 3203 1677 2043 
3308 1973 1972 1951 1447 3111 2992 3173 3178 
494 1756 2239 71 2094 2146 2093 2123 3159 
2086 2063 3203 2757 904 962 2756 2719 1765 
482 14 2734 962 960 906 3431 186 762 
187 3525 188 572 187 2571 1216 1217 1137 
2533 869 867 929 2447 797 720 718 2019 
2051 1441 1442 2359 1099 1077 1079 2325 994 
938 940 3137 3139 3107 3118 3514 3349 435 
511 2083 2082 1819 2061 3340 103 539 513 
1978 380 1721 94 2848 3214 3292 1985 1960 
1720 1721 380 2124 1527 1546 1545 3104 2918 
2897 3103 1986 3310 1715 1984 2947 2074 3286 
2054 3189 685 769 3190 2045 2046 2068 1259 
2017 1801 324 323 2202 1607 1605 2167 2308 
2335 918 855 2474 2493 1028 1069 2186 1364 
1366 1303 2247 1299 1360 1362 3321 2813 530 
2815 2713 2691 903 901 3010 2491 2520 2521 
3299 1107 1091 1108 3209 1569 2084 3217 2091 
1631 390 1632 2869 2037 3215 3236 2923 2238 
2213 2212 3237 200 1672 1673 2243 1379 1377 
1316 2274 1522 1523 3225 2856 2025 2016 2871 
2046 1185 1261 1994 3188 1374 1431 1376 2227 
907 964 963 381 1960 1978 380 3543 1979 
1806 3347 3002 2566 2530 3022 2269 2238 1670 
2240 2332 1371 1369 1308 1161 3228 2333 2296 
2500 1468 2529 2499 2025 1492 1444 2053 2834 
1949 1926 2829 3067 2801 2784 2785 3284 1079 
2327 2360 3218 2165 139 2199 2904 3094 2888 
2866 2325 992 938 994 3252 1151 1228 1149 
3567 3252 658 3452 2531 2502 1228 3252 3315 
1147 1226 2559 3228 1306 2333 2405 2693 3277 
1096 1056 3191 1637 1638 2260 2203 3301 386 
1636 2230 1706 1717 2199 2079 1820 1849 2058 
1977 1875 1873 2003 2032 1862 1841 1845 2040 
119 433 436 3185 2170 1628 3186 3584 2170 
713 3433 2092 1584 395 1625 2092 2116 86 
1659 3179 705 101 302 2676 1742 1741 47 
2530 1296 1359 1357 3561 1942 1188 1925 2565 
1359 1414 1357 2469 1230 1232 1300 2445 923 
861 922 2556 1072 1032 1030 3605 258 720 
257 3241 2570 2568 2534 2376 1293 1223 1291 
3082 2775 2792 3272 3199 2378 2978 3241 2069 
325 1803 1804 3485 307 1812 2056 2936 2280 
2247 2279 2996 2936 3259 2446 3259 921 977 
2410 3266 1413 1463 1415 3516 1894 1790 1907 
3323 519 1788 1890 1890 75 534 519 2664 
2663 2636 2707 2440 1749 351 1750 2482 2528 
1695 332 2440 351 1749 3297 2210 667 666 
200 2361 1043 1085 1083 2295 2325 992 938 
2120 1485 1486 3212 3309 1015 969 964 3291 
1062 1060 2316 2103 3188 1374 1431 2436 1232 
1155 1234 2469 1302 1300 1232 2440 350 1557 
2427 2436 659 194 2399 2738 2737 1059 2759 
3082 2791 2774 3076 2655 615 580 579 2655 
3207 36 2625 2425 2427 1559 3229 1755 2259 
71 345 2304 1312 2277 2276 2975 2405 2332 
2369 2514 2481 1534 2503 2615 2614 1092 2584 
2258 3211 1613 3261 3260 1086 1102 1085 2488 
743 745 821 2426 2424 1730 2389 2971 2959 
2350 2973 2077 1815 308 1814 3246 773 693 
775 2782 645 646 2767 3238 1255 1256 1324 
2101 1323 1254 2072 2102 3303 2124 1546 2951 
2324 2325 2292 2014 1261 1263 1187 2159 772 
843 842 2026 1858 1843 3175 2361 2396 2362 
1083 2042 2012 1678 146 2222 1467 1507 2188 
1907 516 508 126 3354 34 583 2699 3344 
3275 1744 10 2562 1553 1554 2527 2685 2662 
2634 809 3601 251 732 3449 2662 1131 1213 
1133 3177 2242 2273 2275 2467 1556 352 3223 
3221 2190 2191 910 2315 853 854 2282 2863 
2190 2156 2916 2106 2272 2129 2253 2128 1245 
2142 2154 2048 324 1183 2017 2641 2642 1007 
1008 2507 979 1028 1029 3287 2601 985 987 
2198 149 1565 1566 3342 2005 549 539 2146 
1173 1250 2117 3308 1175 1177 1253 3182 1674 
3313 2141 2822 571 4 565 2696 2722 2697 
2672 2676 571 611 573 2672 1211 1130 1271 
2726 635 629 2741 2258 1596 418 2257 2230 
419 1705 2256 3187 3263 2352 2959 3202 2218 
3225 2241 3251 3151 3166 3288 2176 1436 1484 
1483 2011 206 1678 1679 2563 2528 339 1694 
3274 1660 58 41 2666 2665 1397 2637 3004 
3283 2468 2500 3252 1228 1151 2502 3579 237 
657 3452 3369 238 656 3315 3253 191 655 
58 3615 3501 1823 3341 2821 2107 122 537 
1890 534 84 474 1891 124 1686 116 1896 
124 212 1685 2654 360 45 357 2742 583 
617 585 2699 31 360 27 2717 50 1656 
2739 3069 2718 2783 2754 3403 2117 1171 1173 
2093 203 670 669 2101 1254 1323 1322 2878 
2089 2066 3314 2065 2035 366 1711 2108 1779 
147 1778 2087 3209 1570 3169 3181 2473 2506 
3307 3527 3356 1123 247 2637 1449 1398 2631 
2665 1345 1397 1402 2785 2786 2749 2732 885 
945 2750 2770 2750 815 883 885 2732 2751 
1202 1208 2773 3076 2798 2756 2747 588 591 
618 2777 2718 2783 2719 3284 2359 1079 2360 
2075 1517 1547 3286 2184 1366 1303 2186 3264 
3226 2944 3202 2967 2380 3259 2344 2377 2341 
3199 3307 3306 467 1775 1981 2265 936 874 
876 3393 55 652 18 3540 266 706 265 
3541 3437 1154 263 3608 3406 707 2219 2338 
2278 789 2373 2307 917 854 2315 3296 427 
428 1616 2712 836 834 759 2830 2817 1923 
1924 2238 198 1670 1671 3515 3345 526 88 
3162 1718 372 371 1978 105 526 525 2534 
2570 2568 929 2538 1285 1349 1286 3212 1486 
1487 1527 2537 2600 2509 2571 418 2230 2258 
2257 2005 125 548 549 2010 1805 80 1806 
2426 1731 1730 2424 3289 3000 1732 2487 3167 
2421 397 2422 2466 1664 453 454 2402 1761 
1750 350 2546 1734 429 428 2401 1761 1751 
2366 2238 1670 459 1671 2651 1280 1344 1278 
2007 367 368 3151 3278 984 930 2263 3281 
2021 1490 1442 2284 1018 1061 2251 1984 1715 
1716 3310 3243 924 980 2252 2035 1712 366 
1711 3575 3459 665 2236 2141 2180 2217 2172 
3271 643 627 642 3083 328 1551 2725 2824 
623 638 622 2747 1623 437 24 2701 1623 
437 2747 2407 973 974 2371 2292 936 938 
2295 2062 1776 1777 376 2358 994 1041 2326 
3494 2815 521 3329 3321 2815 521 2813 1896 
1902 2826 1914 1886 90 243 1889 1888 1785 
1782 1781 3609 3437 710 263 2278 788 708 
2245 2309 2279 2310 2410 2278 2246 1231 1299 
2994 3297 2495 2497 3369 238 1147 239 2431 
2463 1000 3227 2633 933 2600 2601 2222 2248 
1417 3256 2944 3290 3225 3226 3309 1019 970 
969 2054 1477 1519 1479 2968 2947 3245 2883 
2368 1478 2367 3213 3182 1758 463 73 2274 
1481 1522 2302 3115 3119 3121 3114 2960 3173 
2358 2357 2685 2662 811 2707 2740 2761 602 
559 3099 2876 3209 3198 2357 2960 3178 2951 
3259 977 2448 2446 2849 1986 3310 1983 3311 
416 1707 417 2494 1105 1104 1088 2101 1322 
1323 2098 3600 269 1166 270 2859 2062 2033 
2866 2070 1439 1440 2099 2049 1325 1324 2020 
2917 2846 2875 2857 1891 1686 124 1895 3301 
2208 806 2234 2021 1490 1491 2022 3485 2056 
689 307 2264 988 3284 2294 2292 938 936 
876 2138 415 1709 1708 2171 2208 802 725 
3301 387 386 1635 2508 801 799 2533 2450 
2476 2449 2533 2274 1522 1481 1482 3213 1520 
1478 1480 2896 2902 2903 3182 2244 2211 2173 
2210 2119 2069 2048 2095 3391 304 686 303 
1564 1581 2255 1563 2138 416 1708 3311 3451 
4 571 164 1918 1868 1853 1852 1936 1935 
1855 1871 1913 1827 1789 1826 1946 1336 1269 
1267 1905 1827 1826 1852 2025 2023 1492 2053 
3271 642 647 643 2702 2721 1205 2727 2675 
1207 1209 1278 3235 1206 1124 1207 2140 1634 
1635 2208 2209 804 874 872 2185 2308 2184 
2219 3301 806 2262 2234 3241 3146 2534 2978 
2936 2373 2410 2279 3318 20 478 479 2748 
2719 1764 2777 586 588 3180 2748 2777 439 
502 20 3364 2748 586 3180 2748 486 49 
1764 2830 2833 2832 2836 1888 1892 684 92 
1984 409 408 1723 2090 3236 2204 2091 1973 
1394 1448 1447 2266 2235 934 2264 1986 3244 
409 2008 2396 1083 1101 2362 2360 1081 1079 
2327 2021 1491 1443 1445 2120 1486 1485 1438 
2418 1067 1026 1025 2181 1543 1544 1509 2947 
3309 3291 3245 2977 2419 2407 2969 2750 945 
2730 2770 2760 959 957 1012 2761 602 601 
2762 2763 2721 558 3235 2119 2069 1179 1251 
3189 2160 771 2131 3613 3499 1179 3380 2044 
1810 1842 2057 3345 1980 135 88 1919 1936 
1855 1937 1961 381 525 95 3366 1798 1796 
518 3366 1938 535 131 3515 3345 1802 1961 
2333 1240 1238 1161 2212 1672 199 1671 2277 
1244 1312 1242 3155 2579 893 2609 3038 3155 
1733 445 2545 428 1614 1616 3000 3009 3039 
3038 3009 2484 3167 2989 3517 3350 1176 1179 
1978 381 525 1961 1960 95 381 1961 3304 
1913 1905 1917 1952 1856 1854 1870 1968 1394 
1550 1336 1992 1332 1334 1265 1921 1682 470 
1683 2829 1932 1916 1933 2817 507 3144 1938 
2350 1604 396 1602 2738 2759 1012 2760 2924 
2932 2923 2954 3299 2554 1090 2555 2256 420 
1705 1704 3064 2693 3277 2716 2678 17 1692 
25 2744 637 620 619 327 38 2725 2823 
2798 634 610 649 2436 235 664 659 1962 
1186 1260 1184 2041 672 206 3238 2020 1256 
1258 1325 1944 209 1963 1681 3546 3392 1182 
220 3538 223 672 222 1978 1802 1838 1961 
2849 1984 3244 2860 1954 1935 1871 1953 1978 
477 82 94 3469 716 714 2374 3470 1144 
1146 259 1906 1920 1792 1907 1894 1904 1828 
1906 1907 509 132 506 1686 1890 102 1894 
2261 729 284 731 3301 386 1636 1635 2289 
72 3261 1615 2930 2234 3301 2262 3083 2824 
623 2725 2896 2141 3313 2180 2276 1373 1312 
1375 3280 847 845 963 2154 2155 778 2253 
2655 500 2677 2624 3207 29 67 501 2655 
578 615 579 2688 2665 1339 2666 2785 2784 
597 2801 3194 2785 2802 2801 2895 2139 2112 
3294 3454 2169 723 2171 2848 3210 1977 2837 
2356 880 942 2324 3355 2820 119 2031 2820 
2040 436 119 2009 406 3292 2039 2429 2428 
2460 818 2203 386 141 1636 2232 2258 1595 
2231 3615 314 1823 3501 2380 920 975 976 
2191 910 846 911 1960 1720 115 1719 2338 
2373 858 3259 3290 1540 1504 1503 3193 70 
385 1740 3294 1592 415 2167 2114 3215 389 
2091 3557 3477 1136 2571 3580 3464 726 255 
2537 1217 1137 2571 3477 254 1136 1137 2428 
739 741 818 2428 289 741 739 2353 62 
1728 1729 2257 3261 1615 2289 2991 2461 2462 
2430 3304 1929 1902 1913 1915 1193 318 319 
1967 1267 1336 1946 377 1958 3171 1575 2104 
1473 1475 1425 1999 1531 1493 2024 2307 2189 
784 785 1831 1965 1948 1795 3304 2827 1905 
2826 1948 1793 1795 320 1929 1197 1914 1902 
3556 297 1652 298 2611 448 1652 447 2668 
2640 897 954 1926 1921 1683 1682 1892 1903 
1889 1901 3191 2261 1637 2260 3367 287 1641 
3224 2415 2416 1459 1408 3298 1363 1418 1361 
3138 2897 3103 3104 3576 2236 1167 2210 2217 
1316 1248 1318 2172 2210 201 667 2935 2242 
2934 3177 2968 2883 2314 2890 2335 918 855 
917 2345 2315 917 2335 2307 2335 855 917 
1938 1937 3144 1924 2050 1441 1440 1385 2034 
375 374 3306 1933 1393 1951 1950 2539 1405 
1348 2540 2705 2694 1042 1040 2990 3009 3167 
2989 3495 3320 480 3333 3569 2398 660 3532 
3348 152 593 43 2701 2681 331 1622 2701 
1622 46 1623 2824 622 591 593 2637 1397 
1398 1449 2730 943 881 941 3075 3316 2665 
3047 2730 883 943 945 2441 1424 2404 2403 
1978 1721 477 94 2156 2157 846 777 2161 
848 779 850 1978 105 525 94 3037 3296 
2606 3305 3217 1569 144 364 2220 2186 1364 
2221 1886 1781 1783 1824 1892 1901 1194 1903 
2813 522 521 133 2160 3189 769 3190 769 
2160 841 771 3240 1247 2142 2128 2300 914 
849 2285 2142 694 776 696 1902 1789 1787 
1826 2268 198 197 1670 2841 1963 1944 1996 
1900 679 211 212 1927 679 216 678 1900 
1685 211 1684 3058 2646 3163 2661 2451 1351 
1288 2477 3239 1500 1501 2379 3287 985 1034 
987 2374 714 793 716 3604 267 704 266 
3406 2245 708 2219 2182 2272 2155 2148 1923 
1578 378 3171 2005 125 136 137 3280 912 
963 2227 2125 1374 1313 1311 2106 1313 1315 
2128 2361 2362 1081 1083 2992 2993 2492 3011 
2583 2584 1052 2614 2386 1604 396 2350 2163 
852 2197 2162 2192 850 913 848 2197 2192 
913 2225 1911 1683 471 1684 3552 3418 1190 
1925 1943 469 1682 1681 3000 3039 2579 3038 
2459 1647 442 443 3289 430 1610 1612 2331 
1430 1428 1373 2213 459 1756 460 2950 2298 
2322 2290 2240 459 1670 63 2403 3285 1476 
2367 2301 1480 1481 2302 3547 296 751 295 
2548 892 824 893 3389 1892 1194 1196 1892 
1194 1196 1903 2548 3000 2459 2547 3414 297 
755 753 3038 2549 3155 445 2004 2030 1862 
2032 2090 392 1630 3186 1977 1876 1873 1875 
2031 1841 1809 1811 3162 2833 2848 2840 2032 
1862 1861 1841 1907 126 132 509 1980 79 
1800 1798 1919 1830 1833 1855 2061 1850 1848 
1819 3315 657 192 3252 3243 3278 866 2204 
2258 2257 3261 1596 2290 1562 345 346 2469 
1232 2436 3195 2254 2286 1704 341 3558 2618 
1141 2586 2558 3253 58 3274 3273 2214 1483 
2176 2465 1087 1104 1103 2425 2427 1558 1559 
2353 2321 2350 69 3296 2545 428 2546 2680 
2719 2747 2783 3420 757 759 2643 2644 1737 
449 2643 2774 904 835 902 3037 3068 3026 
3049 2712 2691 903 2713 3424 1948 1793 1931 
1941 372 1578 3162 1910 3171 378 1922 3280 
912 2227 2285 3582 3429 670 3308 2145 1320 
1321 1381 3313 1674 464 1675 2179 2146 1318 
2180 2060 2032 1845 1862 3369 239 656 238 
2365 1666 195 2399 2502 1298 1228 1230 2435 
2434 1067 2418 2222 2188 1507 2223 2247 2248 
3256 1417 2407 2371 974 2372 2514 1497 1533 
1534 3170 2481 2514 3006 2598 1451 1450 2630 
3075 2730 2664 3046 3082 2808 2796 2797 2529 
1506 1508 2532 3277 1096 1056 1057 2627 405 
404 66 2280 1360 1297 1358 2967 2247 2246 
2279 2767 640 647 646 2723 629 611 603 
3300 1553 338 2562 3043 2589 2590 2622 3043 
2743 2742 2746 3321 546 521 2815 3502 2815 
530 3500 3329 2815 546 530 1888 550 243 
1886 3384 1962 1186 1942 3594 1942 1186 3411 
3392 674 675 220 2384 1701 60 423 2423 
1608 1606 2422 2736 1059 1058 1014 2161 848 
850 2192 2523 1030 1071 2556 2519 1003 1002 
948 2959 2352 3268 3263 2385 60 1606 423 
2349 2350 1604 2386 2320 65 2347 2318 3268 
1645 1644 62 2507 979 981 2506 3239 1500 
1536 1537 2533 929 867 2534 3222 2312 3290 
1503 2195 963 2227 3280 2397 1101 1067 2434 
2512 1456 1405 2513 2433 1066 1024 1065 2700 
153 589 590 3578 300 761 3400 3388 2754 
574 576 3343 2755 576 161 33 478 2755 
161 2755 503 33 160 479 2755 50 33 
2158 773 844 843 2835 1947 1951 1933 2156 
846 775 777 2156 846 844 775 2082 134 
106 98 3551 3396 1789 317 1931 1829 1793 
1791 1846 2028 2027 3161 2864 3158 3175 2855 
2260 1638 1640 1637 2956 2317 2941 3220 2260 
812 3224 2323 3390 3367 1640 3224 3110 2958 
2971 2949 3315 191 656 3253 2881 3149 2124 
2102 2086 1778 498 2108 2965 2976 2368 2964 
2585 1074 1032 1072 2258 418 1596 1595 2370 
1537 2343 3239 2164 497 361 2134 3179 302 
101 122 3179 101 1885 122 2680 2766 2681 
2656 3328 154 587 589 2679 2623 2724 2678 
2879 3186 2207 3185 2205 794 717 796 3292 
1585 394 1584 2444 791 793 2337 2444 2337 
793 2374 3463 1150 1148 2337 3595 260 1148 
261 2337 1227 1150 1148 2117 669 203 2093 
2093 1676 204 203 3581 2117 1173 2093 3403 
2117 669 2172 3308 671 204 205 3406 2219 
1156 2245 2219 707 786 787 2184 1303 1305 
1235 2245 1301 1233 1231 2323 2922 3178 2940 
2245 788 708 787 2069 2095 1804 1803 2048 
1257 1183 1181 2195 841 840 3190 2044 1835 
1842 1837 3290 1541 1504 1540 983 2570 1032 
3146 2441 2404 1424 2442 3287 2616 1032 2585 
2536 2556 1030 2523 2542 1532 1496 1548 3019 
2526 2563 3020 2720 1082 1042 2694 2641 1008 
953 954 3025 2544 2543 2577 3122 3233 3040 
3115 3161 2157 777 3302 2863 2000 3175 2855 
3180 487 11 156 2748 485 2747 3180 485 
2748 2747 486 3491 3322 594 3320 2824 2701 
2766 2681 3083 593 623 2824 3508 3361 475 
2678 2725 327 1551 329 1994 323 322 1799 
2828 2844 3304 2836 1904 1905 1880 1852 1898 
1825 1881 1893 2021 1443 1491 1490 1928 1791 
1829 1931 1941 1579 1578 372 2698 2761 3235 
2675 2740 2761 559 2698 2258 1613 1596 3261 
2348 422 1702 423 3170 2514 2481 2513 3053 
2681 2656 2679 2700 1697 475 38 2823 621 
594 592 2824 2701 622 2766 2378 2414 1353 
2377 2523 1029 1071 1030 2248 1415 1465 1417 
2789 762 186 760 2790 2809 2791 2805 2790 
184 568 2805 2790 568 185 569 2048 1251 
1257 1181 3189 771 769 688 2393 2358 1043 
2361 2110 2138 415 1709 2136 362 2165 2137 
2396 1083 1085 1102 3092 3089 2872 3093 2985 
2397 2396 3260 2724 619 620 587 2527 355 
354 1747 3208 2631 3183 2658 2600 2571 873 
2632 1032 2570 3287 3146 2377 1353 1354 1291 
3362 77 1790 1788 1891 124 1896 1895 2132 
2133 781 2080 2029 3302 1849 2058 3258 2864 
2096 2068 3091 3150 2873 3205 2191 911 846 
848 2376 1291 1354 1293 2444 2472 863 923 
3144 2817 1924 379 1924 379 128 1579 1923 
128 378 1578 1959 371 1716 1718 1978 105 
1883 1802 2060 2032 1862 2030 2115 1628 275 
1658 2776 2792 2793 898 3231 2807 606 2812 
2811 566 567 606 2809 632 608 2796 1996 
2018 2020 1325 2036 2037 411 2066 3166 1576 
377 113 1964 1989 1680 1963 2698 1128 1126 
168 3435 2698 559 3235 3013 2525 2496 3274 
3235 1277 2675 2674 2247 2221 1417 3256 2616 
2646 1036 1076 2954 2276 2303 2304 3226 1465 
1463 1505 2536 3146 983 1030 3575 229 665 
3459 3244 410 1588 1587 2883 3245 2300 2882 
2068 1326 1328 1259 2748 49 22 2777 3523 
2755 576 3394 2717 2755 50 2739 3395 1969 
1797 321 3385 235 1155 2436 2436 1232 1153 
1155 2291 878 810 2323 3467 2261 1636 3301 
3224 2323 812 2355 2745 640 620 2744 2262 
806 808 876 3238 2072 1178 1255 2033 1776 
146 1777 3429 670 671 224 2373 2967 2246 
2279 2206 3278 3220 2869 3284 1039 990 992 
2005 125 549 539 2393 996 1045 1043 3268 
2460 3263 2428 2352 2353 69 2321 2292 876 
2265 2262 1642 2354 3193 3224 3209 1570 1569 
143 2444 2339 2337 2374 3589 259 1146 260 
3470 2411 1146 1144 2504 795 865 797 3549 
3397 1169 227 2785 2786 596 2749 2792 2793 
3231 3272 2792 833 900 902 2804 2793 827 
3194 2364 195 2399 2365 2398 2436 2399 659 
3569 2398 1157 2363 2469 3195 1302 1232 2277 
1242 1310 2305 3573 230 663 3461 2267 665 
663 198 2304 1373 2331 2332 2403 1426 1424 
2369 3285 1472 1474 1514 3552 217 1190 3418 
3488 1927 679 216 1927 1192 1190 216 1897 
1914 1197 1902 2697 563 561 603 2652 1742 
1741 2676 2649 64 55 23 2650 1344 1280 
1290 2195 3190 2196 2096 2119 3190 2095 2048 
2017 1183 1185 323 1994 1185 322 323 2017 
324 1183 323 3530 2119 1172 3457 3573 2296 
1163 2267 2679 1727 66 2627 2548 3155 824 
2486 2735 962 960 2734 3271 3279 628 2762 
3184 2254 2286 1704 2290 2322 1562 346 2319 
3184 421 2288 2219 2189 786 706 2185 2189 
1237 2153 2104 2105 1425 1427 2307 785 855 
2308 2189 706 785 786 3345 88 1802 1980 
1924 1920 1937 1919 107 1920 2816 1780 3540 
2219 1158 3436 2246 1299 1301 1231 2472 925 
863 923 2471 2472 925 863 2105 1427 1370 
1425 1376 1374 2125 3188 3309 970 1019 1020 
2881 3286 2102 3281 3096 2931 2264 3220 368 
1574 1958 3151 2364 56 195 1667 3456 660 
661 233 2328 661 56 196 2119 686 770 
690 2095 685 770 686 3622 303 687 74 
3517 326 1176 3350 621 2700 2725 2745 3334 
151 592 594 3353 2823 592 1 2079 1820 
2058 2080 2132 2080 781 699 3161 2078 695 
2076 2079 311 1818 1820 2079 312 311 1820 
3292 1726 406 1724 3240 1376 1315 2106 3258 
1396 1328 1326 2253 778 780 2155 2659 2685 
877 939 2537 2509 1217 2571 2450 2477 1288 
2476 3056 3265 3170 2998 3269 2316 1097 2346 
3317 97 80 2010 2005 103 125 539 3347 
515 108 2005 3340 1811 1809 513 2819 100 
548 137 3498 119 539 3342 2886 3293 2209 
2235 3293 2235 934 872 3041 2620 2621 2651 
2765 636 648 643 2448 977 1026 1027 2340 
2445 2339 2310 2102 1528 1547 1546 3539 2278 
712 3430 3320 2725 492 3083 2700 2679 2725 
2745 3491 491 481 3320 2882 2883 2054 2103 
2748 1764 49 2777 3364 3180 487 2748 3180 
11 68 2747 2748 49 487 22 2816 121 
505 506 3616 3326 533 3504 3211 148 1639 
382 2586 2648 1220 2619 3031 2672 2648 2673 
2561 1660 37 461 3578 2670 1655 3400 3295 
1655 450 44 2644 449 1737 1738 3189 769 
685 688 2119 2069 1251 2048 2095 1804 1803 
1808 3156 2470 2454 3005 1457 1499 2454 2453 
2228 1564 1565 2198 2322 1561 1562 346 2027 
2000 1874 1864 2624 2677 2742 2653 2411 795 
718 716 3588 3470 1144 2411 2411 2444 2374 
2375 2471 863 793 2444 3589 3469 716 260 
1988 1963 1680 1989 3238 206 142 673 3428 
1178 1177 223 2304 1373 2276 2303 2210 201 
200 2173 2378 1409 1353 2414 3466 2115 711 
275 2865 2116 2133 2081 2207 2225 862 2205 
2091 2204 719 798 2317 1033 1073 1031 3603 
2182 702 3448 2281 784 853 2282 3448 2182 
702 700 2070 2097 1384 1439 3198 2064 2084 
3169 3340 513 1809 103 3317 108 80 97 
2952 2961 2327 2960 3454 280 723 2169 2603 
1284 1214 1283 587 585 2724 619 3083 26 
1551 328 3328 154 39 3275 2517 1612 429 
430 2640 2668 897 3267 2616 1108 1076 1074 
3465 281 1634 282 2089 3215 1599 2113 3293 
932 870 872 2931 2885 2895 3220 2208 725 
727 804 3314 412 1590 2089 3596 2825 1127 
3472 2771 2750 815 2708 2823 2725 327 491 
2700 1691 1689 2679 2038 1586 408 3244 2313 
919 857 856 3149 2152 3230 2906 2087 1710 
2110 2088 3296 427 1735 428 2628 404 403 
2627 3574 296 753 3413 2008 1713 411 410 
1574 368 1958 369 3281 2021 2022 1490 2677 
19 356 48 2699 585 583 2742 2677 48 
500 504 2699 2742 2653 2654 2598 1494 1451 
1495 945 885 2750 883 2657 1342 1399 3208 
3553 2081 1879 3387 2083 106 134 123 3376 
2107 123 2083 3550 3387 1822 2081 2528 53 
339 1694 2563 339 1693 1694 3285 1516 1476 
1518 613 575 2676 573 2591 2561 461 3274 
3235 3208 1277 2674 2498 332 1557 1556 2155 
1243 1164 2148 2182 782 702 700 3602 3447 
700 269 2634 730 809 732 3445 2634 1135 
1133 1215 2634 2603 1214 2604 2636 1347 1283 
2707 2731 881 2730 2693 3277 1056 2669 3373 
6 577 162 2676 1741 164 47 3365 3207 
29 6 2956 2955 2283 2316 3249 2050 2051 
2071 2249 1016 1017 2283 330 331 46 2824 
3569 233 1157 234 3528 3348 484 152 2688 
1395 1279 1339 2686 1131 1212 2662 2731 883 
815 813 2688 2664 1395 2665 2057 306 689 
688 3485 307 689 306 2026 2000 1863 2001 
2083 2107 1626 2116 3432 277 1629 1630 2649 
12 64 23 3531 3338 1132 165 3619 3518 
23 7 2822 571 650 2722 2822 40 2652 
2649 2567 2542 1532 2532 2578 891 951 2551 
2547 891 823 892 2483 2515 1696 2482 2640 
895 897 954 2609 953 893 895 2555 2557 
1106 1107 3266 2248 2280 1415 2585 3146 1032 
3287 2536 2523 1030 1029 2556 1072 1030 1071 
2508 2533 2569 801 2413 2376 1291 2377 2475 
1142 1221 2447 2997 2601 2600 2568 2480 1498 
1456 2481 2452 1351 1407 1408 2569 2477 2509 
2600 3315 1663 191 2496 2219 1235 1233 1303 
2696 1199 1132 2649 3297 351 1749 352 2425 
1558 2427 2458 2117 202 203 669 2935 2925 
2216 2902 3197 464 463 1759 2303 1375 1373 
2276 2935 2902 2903 2925 2244 2243 1316 2217 
2244 1314 1312 1244 3187 2355 2390 2391 2494 
1070 1104 1105 3148 1366 1423 1368 2915 2905 
2186 2151 2313 786 787 2219 1890 1786 75 
519 1890 75 1786 1784 1907 126 509 533 
3504 3326 509 1920 3520 3326 1796 1920 2746 
2743 636 2765 2297 458 1668 2299 2780 3271 
647 2767 2333 1310 1308 1240 2717 1114 763 
2755 2390 816 884 814 2429 816 739 818 
2486 749 824 747 3191 3224 1638 3211 2429 
888 886 818 2261 729 808 806 2283 2284 
1061 2251 3253 191 58 1662 2592 1661 16 
40 3335 2676 47 488 2626 42 1661 2652 
3577 3410 749 295 3207 6 67 29 2676 
489 1742 490 2959 2352 2353 3268 2429 2460 
888 818 2428 820 818 741 2428 3268 2460 
820 3234 3295 2644 1738 3054 2766 2768 3080 
2713 903 960 901 2679 1691 2623 2678 2743 
637 619 636 2911 3237 2211 2212 2557 1072 
1106 1107 3260 2397 1102 2435 2408 1024 975 
2372 3577 294 1649 295 2486 3155 444 2487 
3410 295 751 749 2694 1082 1040 1080 3046 
3145 2730 2706 3225 2306 1540 3290 3118 2976 
2964 2966 2504 2412 2413 2505 3307 2376 2377 
2341 3451 164 1741 4 3207 36 1746 501 
3373 6 67 3207 3207 1746 499 501 2298 
1753 1754 2271 3242 1414 1416 1464 3242 1418 
1416 3298 2463 1048 1000 1001 3201 2999 2420 
2455 2464 2465 1088 2492 2443 1512 1535 2470 
2003 1866 1865 1875 2272 851 849 2300 3503 
2654 585 2699 3613 3380 687 3499 2119 770 
686 2095 3426 324 1803 325 2119 1174 1172 
1251 3153 2557 2556 2524 3508 2678 475 2700 
3361 475 39 154 2119 2048 1251 2118 1261 
1259 2045 1328 2953 2962 2364 3195 1912 210 
211 678 1950 1971 1391 1972 3594 1942 676 
3384 1911 471 1683 1921 2489 2460 888 2461 
2949 3184 2937 2958 2423 3167 1608 2422 2917 
2887 2858 2860 2832 1922 3171 1910 3162 1577 
371 1578 2817 1769 379 507 1907 1792 517 
1794 1919 2817 2830 1924 2816 505 107 506 
1920 509 1780 131 1257 2118 2068 1319 2175 
1247 2142 3240 2272 2125 2126 2300 1976 1876 
1875 1877 2253 3280 776 2142 2346 3291 1021 
3245 3414 753 755 2580 2581 2550 1735 2580 
3305 425 1619 1620 2594 1619 3305 2606 2638 
1054 1006 1007 2630 1399 1400 1451 3572 227 
668 226 2848 1985 3210 2837 3369 239 1147 
3253 2922 3211 3191 2232 3564 3405 1648 293 
3554 292 746 3409 2192 913 968 911 1959 
3310 371 3162 3288 2006 3151 3166 2182 2281 
782 2272 2182 1241 1164 1162 3015 2505 2535 
2978 2463 1000 946 1001 3311 416 1594 2201 
2200 1717 1707 2165 2718 44 482 1764 3388 
576 574 189 3069 2753 2733 2754 3325 161 
576 2755 2427 350 349 1761 3285 1474 1476 
1516 2270 346 1754 2298 3265 2510 2538 2511 
3603 3448 702 268 2475 2533 2476 2508 2510 
1286 1350 1287 2169 798 721 800 3402 280 
1632 2169 2894 2901 2910 2942 2169 723 802 
800 2169 1632 1633 280 2407 1065 1023 2419 
2278 1231 1229 1299 3255 1097 2346 3269 3241 
2415 2379 2378 2321 69 1602 2350 3226 1465 
1505 2223 2321 1602 69 1600 3233 2613 2583 
2582 2700 1692 475 1697 3270 1055 2642 2669 
2713 960 958 901 3462 2708 738 736 2841 
1964 1943 1944 2141 201 1674 202 3092 2947 
3192 3150 2827 1906 1908 1919 1909 1684 472 
1900 3306 466 467 1989 3287 987 1036 2633 
2341 1354 1293 2376 3266 1413 1358 1356 3307 
3266 2340 2341 2280 1415 1360 1358 1901 1903 
1268 1194 1919 1868 1855 1935 2251 1018 967 
2252 1906 1830 1878 1828 1935 1868 1855 1871 
2786 2752 552 2749 2709 2708 1210 2687 3576 
229 666 228 2688 2731 2750 2687 2686 736 
734 813 2686 2662 1212 2663 2017 1185 1183 
1259 2017 323 1185 1994 2994 3206 3297 3154 
2562 2563 338 3300 2904 2144 2122 2888 2063 
1777 146 140 2171 723 281 725 2140 1635 
387 3301 2357 2358 994 996 2168 2167 1603 
3294 2139 1601 2113 2112 3208 1341 1276 1342 
3082 3282 2775 3272 2031 548 433 119 2005 
103 1809 1807 2819 2005 548 2031 2446 3307 
2445 2473 3342 2031 549 2005 2726 2741 629 
2723 2589 355 35 1552 454 2495 1760 453 
3452 237 657 658 2720 1112 1084 1082 2671 
1110 1094 1111 2991 3110 3108 3010 3216 1363 
3283 3298 2541 1496 1455 1454 3343 161 576 
160 3509 2739 581 3346 2072 2098 1323 3247 
2437 2502 1151 1230 2501 3216 3298 1363 2365 
195 1666 1667 2555 2524 2522 1106 2633 987 
1036 989 2300 2285 970 914 3170 2512 2513 
2480 1901 1268 1192 1194 3552 3418 678 217 
3488 1901 679 1927 2278 1231 1152 1229 3541 
2278 1154 3437 2278 1154 1231 2245 3412 239 
655 3253 2560 2591 461 3274 2558 2587 1222 
1145 3273 2273 1482 2274 2085 364 1778 2108 
2084 1570 144 1569 2174 1757 73 3237 3069 
2733 3295 2754 2756 904 962 906 3544 2754 
765 3407 3590 2475 1140 2508 2545 2544 1614 
2516 2639 2640 895 897 3028 3299 2557 2555 
2440 2467 351 3297 2671 1080 1110 1111 3297 
454 455 2439 2495 453 1748 1760 2101 2072 
1254 2041 2915 2187 2186 2221 3604 266 704 
3442 2182 2281 2272 2148 2249 2250 1016 3291 
2126 1374 1311 1372 3200 2204 3236 2869 2114 
389 388 1633 1982 3166 373 2006 2047 1390 
1330 1388 3244 410 409 2008 2531 2559 1296 
2566 2531 1226 1296 2559 3253 239 655 656 
2498 1556 1555 53 2673 1280 1209 1211 3206 
2994 3297 2439 2559 3253 1224 2587 3332 520 
544 109 130 1889 684 213 1784 1890 1825 
1786 2814 1891 1890 1688 2160 769 841 3190 
2175 1170 1247 1249 2175 2118 2196 774 3523 
190 768 3394 2680 14 1621 1622 424 3234 
1620 425 2580 446 1735 447 3267 958 901 
2713 3038 2608 2549 2550 3213 1430 1428 2331 
2248 1415 1360 2280 1356 2340 1358 3266 2230 
1717 418 2231 2135 361 2134 2164 3228 1161 
2333 1238 3256 2152 1509 2188 3219 1098 1099 
1064 3559 3186 1630 3432 2717 761 763 1114 
3234 3080 3061 3069 2748 2777 584 2783 2777 
2718 1764 439 2748 22 584 2777 3346 5 
20 2777 3318 479 478 2739 3315 2496 191 
3253 3002 2559 2566 2588 3314 1590 413 2112 
3306 1776 375 1775 3215 389 390 1597 2181 
1543 1524 1525 2235 874 872 2209 1999 1491 
1531 2022 1937 1938 3144 1980 2816 121 1768 
1894 1951 1968 1550 1947 2830 1910 1908 1899 
3079 3080 2768 2782 2734 906 960 905 3271 
628 648 2762 3073 2738 2760 2759 3038 2640 
2608 3026 2708 1127 1210 1129 3203 2094 1676 
3308 1957 1773 113 1772 2169 721 798 2091 
2105 2968 2883 2104 2278 708 788 710 3281 
1489 1488 2071 2433 1024 2408 2407 2338 2344 
920 857 2344 920 857 919 2312 1539 2306 
3290 2327 1039 1041 1081 2143 3172 2178 2176 
2973 2389 2353 2387 3292 1584 406 407 1949 
1925 1926 1911 2251 1018 1061 1017 1368 2127 
1370 3148 2103 3188 1431 2073 2175 3280 776 
2196 2314 916 853 915 2182 2183 784 2281 
3448 2182 1164 1162 3166 1576 1574 1958 2612 
2691 2611 2643 1982 1774 373 1773 1944 1943 
1681 1964 2716 1058 1096 1057 2998 2417 2454 
3156 2423 2424 1606 432 2462 947 1002 1001 
3187 2391 2390 2430 2508 2476 1140 1218 577 
3207 575 6 2624 36 500 59 3299 1074 
2616 2585 2301 1432 1481 1480 2256 1704 1705 
2254 2393 1085 2396 2361 2925 2914 2215 2179 
2298 346 1753 347 2150 1305 1368 1307 2126 
2105 1372 1370 2129 2148 1243 2155 2591 59 
15 2625 3526 3207 578 3373 3252 658 657 
193 2738 1059 1014 1012 897 2668 956 3267 
2545 3296 428 1616 3038 1733 1734 445 2641 
953 1007 2610 3153 2556 3146 2536 3267 899 
956 897 1901 213 130 680 3494 3329 521 
78 2813 529 133 527 2874 3188 2055 3258 
2182 1164 1241 2148 2148 1243 1164 1241 2281 
2148 2126 2272 2281 851 782 2272 2148 1243 
1241 1311 2701 46 437 1623 3348 43 484 
152 3614 3 26 3495 3226 1465 2223 2222 
2360 2362 1081 2327 1936 1855 1859 1871 2000 
1872 1864 1863 2162 852 781 2133 1944 1682 
209 1681 3623 2751 1125 3527 1951 1393 1550 
1447 1942 677 91 1925 2494 2522 1105 1088 
2274 2273 1481 2302 2494 2465 2522 1088 3460 
666 667 228 2210 1246 1169 2217 2267 1163 
1165 1242 2267 2305 1242 2277 2813 92 244 
1892 2813 87 129 547 2813 522 129 1782 
2813 1888 129 87 2813 133 530 527 2813 
521 522 1782 202 2172 201 668 2465 1104 
1087 1088 2954 2923 2276 2304 2479 2478 1407 
2452 2164 149 361 496 2115 2092 1658 2116 
2865 2060 2067 2061 2875 3302 2058 2132 3339 
85 244 527 2813 547 522 133 3550 313 
1822 3387 2079 699 311 312 2076 693 775 
3246 3246 2077 1844 1815 2003 1875 1873 1866 
2078 1818 1847 3302 3609 3437 1152 2278 3609 
2278 1152 3430 2874 2926 2862 2873 2119 1179 
1174 1251 3380 687 686 2119 2048 2095 1808 
3189 3529 158 582 3354 3354 582 583 158 
3327 523 545 75 1887 542 541 118 3276 
1886 551 543 2814 84 542 116 2847 1956 
1964 1981 1909 1899 1770 1910 1942 676 91 
677 1958 369 1575 1576 3325 2755 576 2739 
2748 485 49 486 2754 2755 768 1114 2712 
903 834 836 2830 1923 1908 1910 1902 1897 
1896 1898 1889 684 90 243 2504 2534 927 
2505 2536 1030 2556 3146 3265 2632 2600 2660 
2478 1350 1351 1287 2066 2037 1589 3215 2867 
2868 2035 2065 3587 3419 730 253 3419 1136 
1135 2602 1135 1215 2634 2602 3212 1526 1485 
1486 2861 2098 2122 2101 3278 1031 984 2293 
2135 2164 1566 361 3197 1759 463 1758 3352 
503 483 2755 2755 483 33 503 3352 438 
483 245 3087 2845 2846 2857 2122 1321 1382 
2145 3159 3313 3197 2109 2109 3197 1762 3313 
2337 789 791 712 2309 2337 1150 2278 2278 
1152 1150 1229 2821 783 703 709 3535 510 
112 111 2225 924 913 862 3210 1860 1977 
1955 1899 472 1767 99 2023 1492 1493 1446 
2036 1713 2008 2007 2601 931 933 2600 2695 
1111 1112 1082 2628 1620 404 2656 2439 454 
1664 2466 3014 2495 2525 2497 2920 2229 2928 
2937 3290 1540 1539 2306 3213 2331 1428 2367 
2377 1354 1353 1410 2252 967 968 1018 2819 
2040 100 2009 2635 1213 1133 2662 2706 881 
941 2730 1983 1714 2008 1986 3303 1546 1547 
1515 1576 377 1958 3166 3422 298 757 755 
2532 1508 1533 1506 3163 1080 1038 1078 2647 
1110 1109 1093 3156 3239 3285 2976 2557 1107 
1074 1072 3262 3283 3004 3157 2312 1538 1539 
1502 2869 3220 2206 2886 2136 3217 1568 3209 
2878 2036 2037 2869 3002 2559 3315 2531 2297 
2269 1669 2271 2987 2962 2963 2943 3228 2297 
2269 1669 3228 1159 1238 1236 1974 1872 1856 
1952 1974 1872 1857 1856 2130 2077 691 2056 
3515 105 526 1978 2128 2253 2142 3280 1965 
1831 1948 3257 3424 1931 1793 319 3171 1577 
378 120 2071 1440 1441 1488 2033 2062 1777 
2063 2643 1737 449 448 3286 1549 1547 1529 
2411 2374 793 716 3197 1674 463 464 3176 
358 494 359 3241 2415 2414 2451 2228 2255 
342 1564 2943 2297 2269 2953 3239 1537 1501 
1500 3069 2680 2781 2783 3405 746 747 2459 
2549 445 1650 3155 2548 2547 2459 823 2387 
2386 396 2350 3152 2485 441 1646 3062 2621 
3060 3041 2496 1663 54 2466 3426 2048 1803 
324 2118 1257 2068 2048 2737 1084 1046 1044 
2972 2388 2420 2383 2950 2320 2948 2939 2797 
644 632 2796 3300 1553 1552 337 2825 1127 
1210 2708 2769 943 999 945 3115 3040 3121 
3119 2268 2269 1670 1669 2287 1563 1562 340 
2495 2466 454 3297 2771 3194 894 2770 2709 
2771 2708 2750 2771 887 817 885 2663 1282 
1213 1212 3296 2545 2544 1616 2455 2458 2482 
333 3267 2713 901 2691 2915 2967 2220 2344 
2123 1253 1252 1175 3187 2321 2289 2938 3273 
1483 2214 2241 2706 879 941 881 2634 1133 
1214 1135 3599 3441 1131 250 3601 2662 1133 
3449 3515 88 1802 3345 2031 2819 433 548 
1978 525 381 94 2060 1845 1848 1862 2865 
2032 2030 2858 2010 97 531 477 1978 477 
531 82 3506 1978 1883 3330 3548 317 1197 
316 2854 1999 1973 1998 1947 1393 1335 1337 
1905 1852 1826 1880 3316 1345 1346 2636 2746 
635 648 636 2987 3262 2404 2975 2736 1014 
1115 2758 2657 1343 2674 2621 3219 1099 1098 
2359 3088 2853 3160 3089 3192 2102 3286 2075 
2904 2178 2145 2144 2089 1590 1599 1589 3244 
408 409 1586 864 2225 2205 862 2480 1457 
2453 2479 3270 1093 1054 1094 2500 2468 1512 
1470 2470 1534 1510 1535 3237 460 1757 73 
2303 1373 1430 2331 2357 2325 994 2358 3368 
3179 122 302 2059 2061 1851 2030 3363 114 
538 2820 3452 658 657 3252 3013 2587 3253 
2559 3253 191 1662 2496 3484 2558 654 2586 
3142 3165 3127 3128 3059 2651 2620 3041 3207 
614 577 613 2695 2694 1111 1082 3248 1010 
957 955 2599 1450 1494 1453 3170 2540 2513 
2512 2527 354 1553 1554 2475 2449 1221 1219 
2412 1221 1144 2447 2504 2412 2449 2413 2450 
1219 1288 1289 2355 814 884 882 2489 2490 
948 2519 2940 3261 3193 3211 2680 1621 2656 
2681 330 46 43 2824 3501 1823 111 314 
3553 314 1879 3401 3501 314 111 3331 3300 
338 1553 337 3024 2542 2598 3165 3300 1727 
1690 337 2580 447 1652 1651 2756 837 904 
906 2563 1693 338 3300 2467 3223 352 3297 
2440 351 350 1750 3043 2726 2741 2746 3222 
2312 1502 2343 2377 1291 1354 2376 919 2372 
2380 975 2462 1001 1002 2491 2241 2214 1524 
1483 2896 3182 2141 2902 2655 2624 2742 2726 
2591 37 15 461 2618 16 652 40 2698 
1209 1128 1211 3274 461 1660 2561 2696 650 
565 563 2698 1211 1128 2697 3398 652 653 
242 3424 319 1191 1931 2827 1904 1905 1898 
1948 1189 1265 1191 2842 1966 1945 3257 1992 
1991 1265 1966 2727 556 557 171 2728 556 
554 2779 2786 555 2788 560 2784 554 597 
598 2803 2788 825 748 2237 2267 198 665 
2008 1714 410 409 3304 1902 1905 1913 1917 
1852 1853 1827 2360 2359 1079 1099 2071 1488 
1487 1440 2361 1083 1085 2396 2104 1475 1473 
1515 2382 973 1023 2407 2511 2538 1286 2510 
2660 989 933 2633 2818 1985 1955 3210 1978 
1721 1960 2010 1979 1807 1839 1806 2005 515 
108 103 2619 1220 1143 1222 2721 1124 1206 
1122 3279 2778 2763 2764 3600 270 698 269 
2182 782 780 2272 2155 698 780 700 2219 
2245 1233 1156 3608 2219 707 3436 3608 3406 
1156 264 3406 2219 708 707 3265 3016 2632 
2660 3287 2570 985 2601 2504 2412 2447 2449 
3575 2267 1165 2236 3459 665 666 229 3503 
2654 31 3344 2741 603 651 629 2677 356 
61 27 3184 2256 2254 1704 2229 1705 342 
2254 3138 2925 2914 2934 1900 1896 212 1685 
1946 1337 1269 1336 1949 1333 1264 1932 2254 
1705 342 1704 2306 2302 1520 3213 3239 1500 
2379 2416 3117 3004 3157 3262 2402 1761 2427 
2401 2465 1086 1087 1103 2198 358 149 495 
2230 2229 2256 1705 3146 1030 1032 983 3275 
10 585 587 2226 907 908 964 2171 802 
723 725 2302 1520 1480 1521 3241 2451 2414 
2450 3290 1539 1540 1503 3293 872 870 802 
1972 1443 1389 1445 3567 236 1151 237 1921 
470 471 1683 2821 2081 783 2116 2107 537 
528 122 2875 2162 2197 2161 2083 1626 1659 
2116 2739 50 440 479 2754 3295 2717 2733 
3578 3400 1655 300 2717 3295 44 1655 2717 
44 1656 1655 2030 1862 1848 1851 3302 2157 
777 779 2197 850 913 2192 2157 848 846 
777 3165 2595 3242 2567 2599 1494 1548 1453 
2029 1867 1849 1866 2191 848 2157 2192 2038 
3185 1586 3236 2765 643 648 3271 2631 1450 
1398 1399 1937 1802 1836 1800 2618 1271 1220 
2648 3489 2696 563 2697 2822 4 1741 40 
2822 2722 650 2696 1727 13 3300 2623 3510 
2649 565 3338 1911 1926 1683 1925 2065 3169 
366 2035 3212 1487 1486 2120 2266 3284 990 
2295 2154 778 696 2142 3598 3434 696 271 
3240 1315 1378 1317 3558 242 1141 3398 2592 
2649 2652 40 3029 2619 2620 2650 3580 254 
1137 255 3606 3446 724 256 2967 2338 2344 
3259 2246 1231 1301 2245 2279 2246 1299 2247 
2246 1301 1299 1362 2444 2445 2472 923 2310 
1295 1297 1227 3601 251 1133 252 3601 3449 
1133 251 2450 1288 1219 2476 3455 3228 662 
661 2406 1157 1236 1234 2268 1670 197 1669 
3570 3455 1159 232 2932 2268 2333 3228 2406 
2398 1157 1234 3329 521 546 2815 3500 85 
1200 3339 3502 3329 530 2815 115 95 1941 
1579 1978 1960 1961 1955 2817 1924 1920 1938 
1897 1881 1785 1824 1886 551 543 550 3548 
1897 1787 3421 3421 316 1785 1787 2899 2977 
2905 2969 3255 1098 2359 3219 2179 1320 1318 
2146 2062 1777 144 376 2903 3182 3237 2174 
2109 498 497 2134 3577 3404 1649 294 2580 
447 1651 446 3176 495 1757 494 2932 3228 
2269 2268 3228 661 196 662 3228 1306 1236 
1238 2305 1242 1310 1240 3118 3177 2964 2965 
3228 2297 196 2328 1980 79 535 117 1938 
524 507 93 117 1938 535 1980 3537 3366 
535 518 3156 2443 2468 3285 2479 1457 2453 
2452 2383 1701 336 1700 2616 1032 1074 1034 
3447 1166 1164 2155 2336 918 974 919 2371 
2335 918 2336 3560 299 757 298 2443 1536 
1514 3239 2965 2369 2367 2403 2367 1476 1428 
1478 2240 1755 459 63 3217 144 2062 2085 
2570 983 1032 985 2929 2256 2257 2230 2028 
2875 2003 2857 117 93 1938 1980 1926 91 
1683 1925 2894 2110 2885 2877 2265 934 874 
936 3287 2633 1036 2661 2792 898 900 831 
3208 1341 1342 1399 3055 2630 3208 3062 2806 
2807 606 3231 2797 2807 2808 631 2897 3197 
2164 2134 2237 199 1671 2212 2886 3215 2113 
2114 2209 804 872 802 2803 748 750 180 
3487 2804 562 181 3483 3231 752 2804 2414 
1352 1409 1353 3173 2392 3227 2431 2534 929 
927 2570 3238 206 673 672 2141 202 2117 
2172 3308 2094 2093 2123 3563 223 671 3428 
3429 1177 1175 224 2361 2327 1081 2362 2135 
147 361 1567 2036 411 412 2066 2223 1465 
1505 1507 1228 2530 1296 1298 3252 1664 192 
3315 2566 1357 1294 1296 2596 1412 1414 1452 
2466 453 1664 1663 2497 3223 3297 352 2884 
2096 2196 3240 3216 1302 1304 1365 3254 1751 
456 2366 2548 2579 892 893 2424 1606 432 
51 2690 1094 1095 1111 2613 2607 1006 2582 
3006 2529 2532 3165 2081 1879 1822 1850 2083 
106 1821 1819 2082 98 106 83 2292 2265 
936 2295 3166 373 1574 113 2977 2988 2408 
2407 2295 992 936 938 3244 1588 410 2037 
2898 2904 2122 2870 2867 2868 2007 2035 1999 
1448 1491 1973 1469 2187 1471 3230 3243 864 
926 924 1937 1836 1802 1961 3537 1938 1798 
1980 3537 518 1798 3366 2804 752 827 829 
2811 183 567 566 3300 2589 1553 2527 2529 
3005 2503 2500 3272 3183 3077 3067 3008 2515 
2544 2516 2436 1153 235 1155 3277 1055 1056 
2669 2818 2819 3210 1979 2040 100 138 1582 
2496 462 54 1662 3484 240 654 2558 41 
2558 58 3274 2558 58 655 654 2558 654 
655 240 3265 2600 2632 2510 2694 1082 1042 
1040 3571 3228 1161 2296 2328 1668 196 56 
2405 1369 1308 2332 2856 1992 2016 1993 2515 
399 1696 400 3490 3394 766 190 3394 768 
766 190 3523 2754 576 2755 2918 2228 2229 
3218 2164 361 497 496 3048 2642 2641 3277 
2451 1408 1352 1351 3236 390 1588 3215 3092 
3192 3286 3150 3236 391 392 1587 3481 2789 
760 2790 2790 2805 758 184 2418 1026 976 
1025 2359 1098 1077 1099 3287 1036 2646 2661 
2694 1080 1111 1082 2394 1065 1100 2395 2998 
2479 2453 3265 3005 2470 2481 2503 2705 995 
1042 1044 2813 87 92 1888 1962 208 209 
675 3561 217 1188 218 2049 2018 1325 2020 
3238 1178 1180 1255 1987 2020 1256 1182 1962 
1184 1258 1182 2987 2943 2975 2953 2230 1706 
1705 419 2617 1109 1076 1108 2964 2368 2334 
2370 2175 2142 776 3280 2146 1252 1250 1173 
3323 102 534 1890 2814 84 1887 542 2748 
584 22 586 2198 1565 149 358 2109 3313 
145 3203 2674 1277 1342 3208 2141 2172 2117 
2180 2301 1480 1430 1432 3300 2527 1553 2562 
2563 1693 3300 2593 2762 602 601 628 2746 
635 617 2742 2594 403 402 2593 3550 313 
701 312 2079 697 311 699 1847 1846 2028 
1865 2133 2163 852 783 3386 2079 1818 2078 
2133 852 781 783 2729 1117 173 1119 3473 
2729 1119 2728 2710 1279 1273 1272 2792 756 
831 833 3075 2730 2770 2688 2810 564 604 
2802 2764 2779 557 2727 2834 1942 1970 1944 
2205 2225 3200 2879 2894 2110 3294 2111 1589 
1599 3215 1597 2252 2192 968 3221 3214 1725 
408 407 2252 1018 968 980 3418 217 677 
678 3561 3411 677 218 1942 1188 1262 1186 
3418 217 1190 1188 3570 3456 1159 2363 1916 
1335 1268 1914 1901 1903 1889 1896 1916 1192 
1266 1927 3189 1808 1837 1810 2057 1810 1812 
306 2871 2047 2045 3258 3439 2811 756 183 
3231 564 182 566 3190 769 841 840 3289 
431 1732 2457 2348 1701 1702 2347 2387 1730 
2424 2389 2192 968 913 2225 3161 2078 1847 
3302 3416 2076 1816 309 3386 2078 697 2079 
2078 695 310 697 3416 309 695 2076 3194 
2711 2710 2732 2686 2731 813 2707 2793 898 
829 896 2702 1205 2682 2703 2664 2707 2731 
2663 2558 1222 1143 1145 2525 54 462 1747 
3253 1145 1147 1224 3412 3253 1145 239 3534 
2618 652 2649 3393 2649 652 55 2592 2652 
1661 40 2561 16 37 41 1984 408 1725 
1723 2500 2499 3283 1470 1901 683 215 679 
3151 368 1573 367 1982 2006 374 3306 969 
964 2285 3309 2103 2126 2105 1372 2149 2281 
2282 2183 3148 2186 1366 2184 1890 102 534 
474 408 1984 2038 3244 3162 1578 371 372 
2360 1079 1100 1099 3572 2172 1171 3403 2552 
950 1004 949 70 1740 3263 451 2613 2638 
1006 2607 2504 2449 2534 2413 2504 867 2534 
2533 3239 1536 1516 1537 2535 2570 983 3146 
2820 2067 1582 2040 2009 2848 3210 2858 2133 
781 701 783 2040 433 119 2031 2820 538 
119 436 2738 2758 1014 2736 2502 1228 1151 
1230 2583 1004 2553 2552 2328 2364 56 2363 
3299 1090 1107 2555 2128 1315 1247 1245 2119 
692 770 2118 3478 272 692 694 3457 2175 
1172 1170 2600 933 873 871 2660 933 935 
2632 2571 873 805 803 2394 2395 1100 2360 
3212 1487 2099 2100 2345 972 973 917 2093 
1175 1252 1173 3581 3440 669 2093 3617 3350 
1179 326 3533 511 114 3349 393 1628 3186 
3185 2813 529 527 92 3146 1032 1030 2556 
3290 1504 1462 1503 2967 2936 2247 2279 2369 
2367 1428 2331 3574 296 1651 297 3403 2172 
669 668 2141 2173 201 2172 3397 2172 1169 
1171 3263 2959 2429 2460 2429 2428 739 2354 
2429 739 816 2354 3492 2752 1123 3324 3624 
3621 1120 0 3621 3497 1120 176 2555 1106 
2557 2524 2343 1537 1538 1501 3256 1509 1467 
2188 2379 2343 1460 1501 2813 527 244 92 
2222 1507 1465 2223 3255 1075 1077 1098 1423 
2186 1421 1366 2409 789 791 2337 3148 2184 
1366 1368 2790 2773 835 2791 3049 3068 2713 
3061 2657 3208 1399 2630 2809 2808 632 2796 
2754 2717 2739 2755 2789 570 609 569 2515 
1695 1696 2482 2564 1694 2528 2563 2484 1612 
399 2516 2685 807 809 2634 3127 2529 3005 
3006 3056 3287 2661 2633 3021 3165 3242 2529 
3355 81 119 538 3533 2820 1882 3349 3351 
2747 437 155 3351 2701 437 2747 3351 2747 
591 2701 812 814 3224 2355 3187 2289 3261 
2938 3367 3224 735 287 2464 1047 1087 2432 
2967 2344 2246 2220 2308 2336 2335 2184 2892 
3209 3217 2136 2188 1509 1467 1507 2749 2729 
2711 1201 2787 2786 2788 2803 2804 2810 2793 
3194 3358 2752 555 2788 3194 827 825 894 
3497 3358 1120 2752 3480 2803 560 180 2806 
3231 606 605 2805 2791 758 756 3248 894 
896 3194 2792 2791 756 833 3029 3274 2561 
2591 2501 2502 1298 2530 2530 1228 1296 2531 
2621 1401 1355 1412 3007 3008 2999 2483 2642 
1008 1055 1007 989 2660 933 935 3051 3287 
2646 2661 3307 2506 2472 2473 2840 3171 2832 
3251 2274 1523 1522 1482 2576 1454 1403 1453 
2604 1347 1284 1283 3075 3046 3047 3145 2541 
1548 1496 1454 2514 1455 1496 1497 2443 2417 
1536 3239 3071 2692 2714 2715 2500 1470 1468 
2499 2500 2470 1512 2468 2442 2405 1304 3216 
2467 1557 351 1556 2565 1414 1359 1416 2865 
2059 2061 2081 2131 771 772 2159 3416 2076 
695 2078 2857 2846 1976 2845 2857 2028 3302 
3161 3599 250 1131 251 3441 1131 1129 2686 
2685 809 811 2662 2708 2731 815 813 2546 
1735 1734 428 2769 945 1113 2770 2452 1407 
1351 2478 2372 919 974 975 2216 2242 1379 
2215 2340 1356 1358 1295 2906 3230 2187 3256 
3463 261 1148 1150 3539 262 1150 3430 1911 
1921 1683 1926 1925 91 210 677 1262 1260 
1942 1186 3411 218 1188 1186 2500 2468 1470 
3283 2735 1115 962 2757 3300 338 337 1690 
3602 268 1164 269 3188 1376 1378 3240 2424 
1731 1730 432 2778 3279 627 3271 3078 3074 
3271 2765 3475 172 1121 2728 2779 598 599 
556 3359 1886 118 109 1897 1197 1914 1903 
1919 1920 1830 1906 1916 1268 1266 1192 3210 
2032 2031 2040 3568 3417 673 1987 1973 1445 
1491 2021 2234 804 2209 2208 3467 2261 729 
284 2603 2602 1215 2572 1914 1270 1268 1197 
1898 1881 1880 1826 2826 1896 1900 1895 3191 
383 1638 1637 2324 2325 878 940 3224 812 
733 735 2940 3191 3211 3224 2225 2205 3200 
3243 1929 1195 1197 1902 3433 713 715 2170 
2875 2028 2003 2029 2966 3241 2379 3199 2509 
1218 1217 1287 2601 987 933 931 2510 2538 
1216 2571 2054 2883 2074 2103 3387 2081 1879 
1822 2059 2133 2058 2080 3401 1879 1823 314 
3292 1584 394 2092 2083 1819 1821 2061 2207 
860 862 2225 3185 394 393 1628 2865 2132 
2162 2875 2083 1659 86 2116 2749 1201 1117 
2729 3493 2752 767 3324 3194 896 827 894 
2732 2710 2771 2709 2787 2771 3194 887 2751 
742 819 2788 3474 174 553 173 3356 767 
742 2788 555 2786 2788 2752 2732 1201 1273 
1202 820 743 3268 2488 3375 290 1644 3268 
2000 1863 1864 1844 2908 2156 2157 2191 2194 
908 842 2159 2026 1863 1844 1843 2028 2003 
1865 2002 3161 2156 775 777 2408 2372 975 
2380 2446 922 977 978 3290 3266 1463 3226 
2507 2506 981 2536 2415 1459 2379 2378 2183 
702 784 704 2183 1160 1239 1162 3177 2275 
2273 2301 2331 1428 1371 1373 3232 3176 359 
358 2104 1423 1473 1425 3306 1989 467 1981 
2075 1547 1515 3303 3245 970 971 915 2735 
962 2734 2757 3066 2778 2794 3081 2550 2580 
2639 2549 3053 2743 2623 3042 2327 1079 1039 
1081 2187 1469 1471 1421 2789 569 186 570 
2816 1907 1768 132 2838 1956 1943 2847 3089 
3251 2839 2838 1958 1576 1574 369 1982 374 
1774 3306 3326 509 131 533 3504 533 509 
3326 3616 3326 1794 96 1907 517 126 533 
2298 347 1753 2330 2421 1699 397 1700 3507 
3341 705 3179 2115 1658 1627 2116 3185 1586 
393 1585 3512 3368 1627 302 3466 2115 1627 
2116 2185 2189 1158 1237 2889 3149 2124 2881 
2074 1475 1477 1427 2153 1307 1239 1237 1978 
1721 380 1960 3379 305 688 3189 3379 305 
1810 306 2017 1801 323 1799 3597 3462 1129 
249 3441 736 734 2686 3597 249 1129 250 
2686 1212 1131 1129 3599 2686 1131 3441 3162 
3214 1726 1718 2207 792 862 860 3162 1985 
1726 3214 3570 3456 661 233 2029 1866 1847 
2028 474 1890 1686 1688 3362 77 102 508 
3516 77 1790 3362 2068 1326 1319 2096 2048 
1801 1837 1803 3190 685 769 770 2119 1251 
1172 2118 3217 2062 144 2084 2088 1711 1710 
413 3217 2085 2108 364 2087 1570 365 3169 
3284 988 1037 1035 2804 825 827 750 2752 
175 555 552 2636 1283 1346 1347 2044 3189 
1810 2057 3277 1008 1055 2642 2706 2707 881 
2730 3547 3410 1650 295 2655 578 614 615 
583 2677 616 582 3529 3354 582 2677 2699 
34 583 585 3336 9 580 2677 2543 1694 
1695 2528 2733 761 838 836 3052 3040 2645 
2615 2528 1694 1695 53 2692 958 956 3267 
2593 402 1693 403 2204 798 866 796 3522 
3402 1631 2091 2161 850 779 2162 2038 3292 
1585 3185 3162 1726 1719 1718 2917 2197 2192 
2161 2197 852 850 2162 1625 2039 1584 1583 
1985 3292 1726 3214 1979 2819 3210 2005 2083 
123 134 1626 3466 275 711 110 2092 395 
394 1658 2537 724 801 803 2569 2477 2476 
2509 2537 2571 803 2600 3580 2537 726 3464 
2476 1288 1219 1218 2510 1217 1286 1287 2708 
815 736 813 2687 1212 1281 2663 2687 1212 
1210 1281 3597 250 736 249 2571 2572 1216 
2602 3606 256 724 255 2530 2566 1296 1357 
3253 239 1147 1145 3372 2823 590 2700 2823 
592 1 590 2384 1700 1701 2383 2522 1088 
1089 1105 3554 3409 746 3152 3051 2616 2617 
2646 2130 689 772 2131 2001 1863 1857 1974 
2130 691 689 2056 2076 775 693 695 3175 
1842 1858 1843 2862 2053 2023 2025 1971 1391 
1389 1331 2835 3304 2827 2828 1972 2021 1443 
1445 2774 2773 837 2756 3234 1621 424 1620 
3186 3236 392 3185 2090 796 719 2204 2114 
2140 388 2113 2206 866 868 3278 3537 1938 
535 3366 507 3144 93 379 1937 1836 1833 
1800 2010 1720 1721 1960 2461 886 2462 2430 
2909 2230 2199 2920 3225 1522 1521 2302 3226 
2248 1465 2222 2343 2379 1460 3222 2312 1503 
1539 3290 3285 1514 1516 3239 2605 1449 1402 
2637 2223 1542 1507 1505 2481 1498 1497 1534 
2702 1277 1206 3235 2700 2745 589 2724 1987 
674 208 1962 3295 3234 482 1739 2798 2789 
610 609 3069 2798 2753 2799 2747 24 68 
486 1984 408 2038 3214 2250 1016 1015 965 
3417 673 674 221 2034 1572 374 375 2006 
1572 374 2034 1939 1682 470 1921 1973 1448 
1445 1447 1971 1329 1389 1387 2821 2116 783 
709 2116 2163 783 711 2132 779 2162 2161 
2059 1850 1822 1851 2323 812 880 810 2291 
810 731 2260 2260 285 733 731 2321 2289 
385 3193 2917 2252 3200 2927 3522 2091 721 
3402 3565 278 719 3427 3186 792 715 794 
1628 393 3186 1629 3433 276 1628 1629 3566 
276 715 3433 3309 2250 3205 3291 3147 2359 
2360 2394 2284 1031 2316 1061 2821 2116 2107 
2081 2059 2080 701 2133 2206 2204 3236 2091 
3257 1952 1965 1831 1853 1934 1854 1869 2853 
2831 2844 2843 3405 293 747 746 2486 443 
1648 2459 2459 823 746 747 2756 906 962 
2734 2816 506 107 1780 2564 1693 402 1694 
3305 426 3296 2606 3054 2680 2656 2766 2802 
596 562 604 2683 1274 1275 1340 941 943 
3145 2730 2565 1416 1359 3298 3242 2499 1418 
3298 3064 2669 2690 3057 2515 1695 2528 2543 
3073 2760 2738 3282 2651 2621 2674 1343 1969 
1187 1189 321 3537 3366 1798 1938 3520 96 
1796 3326 3616 3504 1794 3326 1920 107 2816 
2817 3215 1597 1599 389 2113 3215 389 2114 
3310 371 370 1716 2206 800 798 2169 1957 
377 113 3166 3337 6 490 488 2676 573 
611 613 2696 1132 1199 1271 3207 499 29 
501 2722 2592 2652 2626 3207 613 577 575 
2723 613 614 3207 2711 1272 1273 1201 2779 
599 625 3250 3510 177 23 3338 3619 2649 
23 3338 3518 7 177 23 3547 295 751 
3410 3574 3413 1651 296 3413 296 753 751 
2700 2724 589 2678 2724 620 619 2744 2742 
2622 2624 2653 2655 36 2624 2625 2699 2677 
61 27 2635 2685 2707 2662 3287 2568 2570 
2601 1978 477 1721 2010 1955 1838 1859 1936 
2005 1807 515 103 1985 1724 1722 1719 2004 
1867 1861 1862 3347 2005 1807 515 1960 381 
1978 1961 2815 1198 1196 1200 2717 1657 1655 
1656 2754 2739 576 2755 3378 301 763 2717 
3316 1346 1403 1347 2664 2707 2730 2731 2456 
1698 398 1699 2578 951 891 892 3409 292 
1646 1647 2628 1619 1620 3305 3296 3017 2544 
2545 2691 832 901 899 3296 426 1736 427 
3067 3248 2770 3075 825 2804 827 3194 2651 
1278 1344 1343 2734 2753 905 2712 2738 1014 
1059 2736 3248 1113 894 2770 2723 611 613 
2676 2697 650 563 603 3031 2650 2648 3029 
2652 42 1661 40 2618 652 16 653 2618 
2592 40 2649 3156 2443 2470 2468 2369 2331 
1371 2332 2469 2502 1300 2501 2213 1756 459 
1755 2351 1560 2322 3229 1932 1266 1333 1264 
3303 1546 1515 1513 2398 1234 2406 3195 2828 
1910 1899 1909 2847 1956 1943 1964 2702 1205 
1206 1276 2806 630 624 605 3248 896 2793 
3194 3447 700 698 2155 2142 2253 778 776 
2155 778 780 698 2355 2356 880 882 2819 
2040 433 100 2207 794 792 3186 2197 913 
860 2225 2082 1819 1848 1817 1959 3162 371 
1718 2080 781 701 2133 2132 697 3302 2079 
2728 1204 1205 2703 2658 1340 1341 1398 2658 
1340 1397 2666 2945 2310 3266 2280 2341 1411 
1354 2342 2247 2248 1360 2280 2339 2444 2337 
2409 3307 2472 2505 2471 2936 2310 2280 2279 
2444 793 861 863 2564 2543 2528 1694 2195 
2194 841 2160 2106 2129 1313 2128 3084 3158 
2855 2863 2048 1183 324 1181 1915 319 318 
1791 3551 317 1789 318 2827 1918 1905 1904 
2852 1968 1946 1967 1915 318 1193 1195 2258 
1595 1613 1611 2232 3191 1609 3211 3261 1615 
1613 1596 3406 707 708 264 2220 2313 2245 
2219 2219 2245 708 787 2245 1156 1154 1233 
2423 1606 2385 2422 3233 3039 2989 3122 2600 
803 2569 871 2632 873 805 2571 2510 2571 
2632 2538 2600 873 933 2632 2340 1358 2310 
1295 2309 1297 2310 2279 3096 2877 2885 2868 
3383 283 1635 3301 2519 949 1003 948 2348 
1702 1701 423 1637 2203 141 1636 3261 148 
1613 72 2348 1702 422 3184 2321 69 384 
1600 2040 1582 138 2067 2031 548 549 2005 
3342 2005 1811 2031 3498 2005 1811 3342 2716 
1096 1059 2737 2791 833 758 756 3067 2784 
2801 3072 2780 645 644 2796 3154 3297 2400 
3206 1934 1868 1853 1918 1914 1335 1268 1270 
3622 3350 687 3499 3391 303 686 687 3489 
2697 1130 2696 2696 1130 2672 2697 3236 391 
1588 390 3402 2091 1632 1631 3402 2091 721 
2169 3496 3337 488 6 2815 1782 521 2813 
2815 1888 1782 2813 1898 1897 1881 1902 1903 
1198 1268 1194 530 527 2815 2813 3389 1892 
682 683 2813 92 87 529 2056 307 691 
689 2077 308 307 1814 2130 2056 689 2131 
2068 1319 1326 1257 1994 322 1797 1799 1994 
322 1185 1187 2119 3190 2048 2118 2068 1326 
2096 3258 2131 771 2159 2160 2048 1808 1837 
3189 3309 969 1015 1019 2048 2864 3190 3189 
2678 2654 2623 2724 3503 10 585 3344 31 
2654 360 1744 2870 2122 2123 2101 2063 146 
1687 465 2903 3182 2174 3197 3266 2945 2340 
2310 1939 1771 1772 1940 3538 3238 1178 3415 
3216 1363 1300 1302 3385 234 1155 235 3571 
3458 662 2296 2116 783 709 711 2039 1625 
1584 2092 2083 2082 106 1819 2083 134 86 
1659 3026 2639 2580 2667 3556 297 755 3414 
3422 755 757 2611 2611 832 755 757 3333 
26 492 480 2725 327 328 1551 2725 328 
491 492 2848 3162 1985 2837 93 117 1938 
524 1923 1579 128 1578 1940 1922 1921 1771 
2038 408 407 3214 1975 1953 1869 1952 2658 
1340 1275 1341 2689 1272 1274 1339 3235 1277 
1206 1207 2728 1119 1121 1204 2795 2779 625 
3250 2728 1205 1121 2727 3468 2475 722 720 
2475 1221 1142 1219 2475 1142 1140 1219 2475 
2476 1140 2508 2510 2600 2632 2571 2020 1258 
1256 1182 1964 467 468 1680 2654 357 45 
2653 2724 2679 2700 2745 2622 1552 45 2623 
3508 2678 589 3361 3250 2806 630 2795 2775 
900 959 902 2780 647 645 2767 3271 648 
628 643 3073 2737 2759 3145 2798 610 634 
609 2150 1368 1305 2184 3245 915 971 2314 
2149 2127 2282 2281 2153 1309 1239 1307 2127 
1370 2105 2126 2740 602 561 559 2648 1271 
1338 2672 2619 1338 1220 1290 3506 514 531 
3330 3313 145 1675 464 2085 1778 364 1777 
3173 2974 2393 2985 2960 2326 2325 2358 2167 
1605 1603 1592 2118 1251 1257 2048 2119 770 
2095 3190 2069 325 1179 1181 3426 324 1181 
2048 3314 2089 1590 2112 2064 2084 376 2062 
2143 2120 3212 1485 2085 1777 144 2062 2637 
2665 1397 1402 3174 3057 3277 3064 2690 1055 
1094 3270 2690 1095 1055 2669 2690 1111 1112 
2695 2774 904 961 2757 2402 57 455 1750 
2399 1666 195 194 3145 997 1046 999 2641 
1007 2642 2610 2548 823 824 892 2486 443 
444 1648 3009 3167 2484 3289 2642 1055 1054 
1007 3193 1639 3224 3211 2861 2122 2098 2888 
2101 1253 1254 1322 3568 221 1180 222 3238 
1255 1324 2072 2649 40 64 1766 2822 650 
565 2696 2649 652 64 40 3234 425 424 
1738 1964 1989 467 1680 2726 629 614 2723 
2762 628 648 651 2657 1400 1399 1342 2560 
2590 1745 461 2726 635 614 629 3602 2182 
700 2155 3274 3253 58 1662 2642 1007 1054 
2638 2544 400 401 1616 2543 1695 401 400 
2667 2639 897 3267 2567 1495 1464 1506 3004 
2529 2499 2500 2516 2515 2544 400 2515 2543 
400 1695 3037 2606 3296 2577 2483 1696 1698 
2482 3604 2189 1160 3442 2308 855 856 786 
3442 1160 1158 2189 3604 3442 704 2189 3066 
2682 3208 3183 2526 2562 339 1554 3407 2754 
572 574 2244 1244 1246 1314 2244 2217 1316 
1246 2210 1167 1169 1246 3082 2812 3272 2792 
2801 624 597 604 2792 3231 2812 3272 3480 
2803 748 2788 2806 606 630 605 3358 2788 
555 179 3353 1 28 2823 2725 623 594 
621 2627 2679 405 66 2747 486 1765 24 
2670 1655 450 3295 2748 2783 2747 2719 2670 
3295 450 1738 2748 2777 2783 2719 1764 1765 
2748 486 2081 701 783 2133 2116 783 2163 
2133 2821 703 705 709 2292 938 878 2325 
2839 2832 1922 3171 2486 1648 444 1649 2548 
823 892 2547 2579 893 952 892 3155 826 
749 751 3564 294 747 293 3068 3033 3049 
3037 3469 1148 1146 2374 2109 3313 1762 145 
2141 1674 201 1673 2241 1483 1523 1482 2063 
140 146 465 2041 672 671 205 2980 2968 
2899 3192 2926 3221 2249 2224 1950 1331 1333 
1391 2284 980 982 1018 1942 209 91 676 
1942 1925 91 1926 3593 1962 675 3392 3392 
1184 1182 220 3598 2142 696 3434 3434 1168 
1170 271 3607 3434 1170 271 3560 3422 1653 
298 3486 285 1637 2260 2140 2208 1635 3301 
2260 733 810 731 3191 1609 383 1607 2261 
1637 2203 3191 3524 286 1640 3390 3497 2752 
555 3358 2752 1120 176 1118 3358 178 767 
179 2551 2552 950 2582 3085 3202 2181 2907 
1637 2261 2203 1636 2785 2729 553 2784 3474 
173 553 2729 489 3207 490 2676 3002 3034 
2588 2566 2672 1338 1211 1271 3382 4 1766 
12 3382 12 565 4 2696 2722 2672 2592 
2572 1285 1216 1215 1216 2510 1217 1286 2600 
803 873 2571 2571 2572 805 2632 2660 3023 
2632 2659 2105 2883 2074 2104 1953 1868 1869 
1934 3255 2346 1097 1098 2382 2345 973 2371 
2104 1425 1475 1427 3172 2143 3212 2177 2041 
1178 1254 1177 3440 1175 1173 225 2123 1175 
1252 2093 2123 1253 1321 1252 3582 3308 670 
2093 3440 2093 1173 1175 2768 639 638 640 
3126 3312 3064 3174 3083 1551 26 330 3541 
264 708 263 2338 858 789 788 2279 1229 
1297 1299 2362 1101 1081 1083 3171 1577 1575 
3310 2670 3295 1738 2644 3053 3044 2627 3054 
1894 102 473 1768 1893 1825 1881 1824 1886 
109 544 118 2815 1892 1888 2813 2166 1593 
415 416 3227 1000 944 946 3294 2112 1591 
2139 3140 3173 2960 3102 2136 3209 1568 363 
2425 334 1558 2458 2631 1450 2630 2599 2182 
2272 780 2155 2482 1695 1696 332 3297 1749 
454 1760 2482 332 1696 333 2467 351 352 
1556 3121 3052 3040 3122 2226 3309 2227 964 
2125 1376 2106 1313 2874 2055 2053 2862 2129 
2155 1166 2154 2126 1311 1309 1372 3466 275 
1627 2115 3077 2759 3145 3073 3312 2715 2716 
3277 2513 1405 1455 1456 2480 2481 1456 2513 
2477 1218 1288 2476 2538 2510 1216 1286 2451 
1351 2478 2452 2161 779 848 2157 2092 395 
86 1625 2067 86 1625 2092 3185 1658 2115 
2092 395 1584 2092 394 2224 2250 965 966 
3588 2411 718 3470 2411 1144 1223 1146 3298 
1418 1416 1361 2357 994 940 996 3172 2120 
3212 2143 2448 1026 1068 1027 1821 1823 2081 
1879 3376 2107 1821 127 2194 842 908 907 
3189 2095 685 3190 2128 1245 1247 2142 2073 
1444 1433 1479 2226 3309 1015 2250 3193 3261 
148 3211 2257 1596 1615 3261 2462 947 1001 
946 2289 1617 385 1615 3183 2683 2658 2666 
3056 2633 2660 3265 2720 2695 1082 2694 2541 
1404 1454 1455 2168 3301 386 2203 3215 2113 
389 1599 2171 1633 1634 281 3465 282 1634 
2208 3228 1669 196 2297 3228 2363 1159 1236 
2067 1625 2039 2092 3584 276 1628 3433 2290 
2287 1562 2320 701 2081 783 703 2879 3186 
3185 3236 2205 866 864 796 1031 2316 1073 
2317 95 1960 381 115 2528 1695 332 53 
3017 3296 2544 3025 2775 3282 3076 2757 3068 
3267 2713 2714 3606 2508 724 3446 3446 2508 
1140 1139 3590 257 722 256 3446 2508 724 
722 2825 2771 817 2708 2788 748 767 819 
2752 1202 1118 1116 2752 175 1118 176 3399 
174 552 2749 2732 1116 1201 1202 3227 998 
944 1000 2489 889 2460 2518 2438 1666 194 
1665 3315 192 656 191 3252 1664 2466 2439 
2437 194 664 658 2437 1151 1153 1230 3021 
3045 3034 3242 2588 1355 2621 2620 2570 927 
983 929 2533 2568 869 929 3356 2751 1123 
2788 3527 2751 1123 3356 3356 2751 742 740 
3497 2752 1120 176 3621 176 1120 0 3357 
178 744 767 1924 1937 1961 1936 2771 815 
817 2708 2732 1208 1273 2709 3194 2787 2732 
2771 3596 248 1127 249 2825 819 740 817 
2686 2708 2731 2687 3207 614 578 577 2618 
41 16 2561 3534 3393 1199 2649 2983 2973 
3152 2518 3263 2428 1644 3268 3236 2037 1588 
3244 2109 145 1763 3203 2129 2154 2253 2155 
2720 1112 2695 2693 2188 1509 1507 1543 2570 
1032 3287 985 2405 1308 1369 1306 2298 2299 
1753 2271 2398 2406 1157 2363 2501 1363 1300 
3216 2962 2365 2366 3254 3229 2427 1559 349 
2025 1390 1388 1444 2196 3190 770 2118 2096 
1317 1326 1319 2501 3298 1361 1363 3013 3253 
2587 3274 2741 651 635 629 1692 475 2678 
2700 1892 92 244 684 3542 1892 1194 3389 
1900 212 211 1685 3453 3339 244 2815 1903 
1268 1198 1197 2897 2198 2918 2164 2349 423 
1604 422 2519 2490 1002 2520 2553 1051 1004 
1052 3272 2801 2810 2806 2780 2796 644 2797 
3282 3076 2757 2735 3250 2807 630 2806 2805 
2812 567 607 2856 2862 2025 2871 2839 3171 
3166 3251 2955 3269 2316 2956 1974 1863 1857 
1872 2285 964 2227 3309 3309 2926 2250 2226 
2745 589 620 621 2679 2627 405 2656 2747 
485 68 3180 2719 1765 14 434 3364 3180 
586 156 3180 68 487 485 2260 1637 1640 
285 3486 2261 731 2260 3486 2260 731 285 
2402 1761 57 1750 2361 1043 1083 1041 3284 
1037 1039 1079 3284 1037 990 1039 2996 2945 
3204 2936 3403 2172 1171 2117 2422 1606 60 
1608 2348 2347 1702 2318 2389 1729 1730 441 
3545 3377 1643 288 3263 1643 1644 2428 2034 
1572 3169 3151 3311 1707 416 1708 2870 2043 
3308 3203 3083 2824 2681 331 2823 594 621 
2725 2823 28 1743 1 2700 1697 38 329 
2681 1621 405 1622 2679 13 1691 66 2733 
2712 836 2753 3053 2627 2656 3054 2754 2717 
3295 2718 2681 21 405 1689 3569 3532 1157 
2398 2681 21 1622 405 3081 2778 3271 3279 
475 1692 2678 39 2670 1738 449 2644 2774 
2773 835 837 2640 954 953 895 2734 906 
905 2753 115 1960 381 380 2529 3242 2532 
3165 2690 1055 1095 1094 3296 1736 1735 427 
2720 1084 1042 1082 3277 1009 1056 1008 2705 
1042 993 1040 2645 2647 1109 1093 3496 6 
488 163 3496 6 575 3337 2676 47 488 
490 3043 2625 2590 2591 2819 2005 2031 3210 
2878 2886 2895 3220 2205 864 862 794 2225 
968 913 924 2068 1328 1326 3258 2874 3309 
2873 2882 2128 2142 2253 2154 3240 2142 3280 
2128 2874 2226 2926 3309 2001 1857 1858 1834 
2261 284 1636 1637 2208 727 806 804 2291 
731 808 2261 2930 3301 2203 2262 3486 2260 
1637 2261 3450 2154 698 696 3598 271 696 
270 2154 696 778 698 2154 698 778 2155 
2182 1164 2148 2155 3270 1110 2671 2647 2500 
1512 1510 1470 2454 2470 1535 1534 3163 2694 
1040 1080 3052 3058 3051 2646 2477 1351 1288 
1287 2946 3222 3199 2966 2660 1038 989 2661 
3287 2601 987 2633 2510 2509 1287 2477 2413 
1353 1291 1289 2538 1216 2571 2572 2244 2217 
1246 2210 1915 1193 319 1931 2267 1242 1165 
2277 2050 1441 2051 2071 1938 507 524 131 
2838 1939 1956 1957 2618 653 16 41 2648 
1220 1338 1271 1984 2038 2860 3214 2058 1849 
1867 1851 138 1625 2039 2067 3349 2820 435 
114 3533 2820 114 3363 2108 498 1779 1778 
2898 2122 2123 2870 1491 1973 2022 1999 2002 
1874 1875 1865 2078 2079 1818 3302 2029 1849 
1847 1866 2284 982 980 3243 394 3185 1658 
1628 2207 862 794 2205 2038 407 408 1585 
1973 1968 1394 1447 2284 3243 980 2252 3031 
2648 2672 2592 2696 2672 1130 1271 2696 2697 
650 563 2652 1741 42 40 2626 37 1661 
15 1887 545 84 1890 1887 1783 1824 1886 
542 2814 1886 1887 1887 541 84 545 2813 
540 547 133 3152 1647 442 2459 2996 3259 
2448 2446 3577 294 749 3404 3274 3253 1662 
2496 2039 2092 1584 3292 3243 926 982 980 
2005 108 125 103 3548 316 1197 3421 3293 
2209 802 2171 2886 2869 3215 2206 2206 870 
868 800 2833 3162 3171 2840 3493 3324 1120 
2752 3067 3072 2683 2704 2770 945 1113 885 
2801 605 604 2810 2810 604 564 605 2793 
829 827 896 3431 187 570 186 2790 568 
608 2809 2772 570 610 2789 2772 187 572 
570 2772 572 610 570 3525 188 764 3407 
3570 2363 1159 3228 3570 232 661 3455 2060 
1817 1848 1845 2004 2030 1867 1862 2040 2039 
2032 2067 2067 435 1582 1624 2082 86 134 
98 2067 1624 138 1625 3032 2562 3300 2563 
2593 403 1693 1690 3066 2703 2683 3072 3008 
2999 2483 2484 1688 1891 116 2814 1891 1898 
1894 1895 1893 2814 1886 1889 2802 564 604 
562 3473 2728 554 2729 2749 174 552 553 
2804 562 181 564 2514 2542 1533 1496 2454 
1535 1499 1498 2694 1111 1080 2671 2512 1405 
1456 1406 3121 3052 3051 3164 2163 783 790 
852 2757 961 2775 2758 2405 2442 1367 2404 
2778 600 2763 2764 2497 1748 1760 2495 2753 
905 838 839 3076 2809 2791 2773 2774 2756 
904 2757 2774 833 835 2791 2774 902 835 
833 2758 2760 1014 959 3206 2438 2439 2400 
2780 647 644 645 2895 2113 2112 2139 3467 
284 1636 2261 2208 802 804 2209 2140 2171 
1634 2208 2443 1499 1536 2417 2368 2367 1476 
3285 2255 1563 341 1564 2141 2117 202 3313 
2655 614 578 3207 3521 3370 579 2655 3043 
2726 2723 2741 2655 36 67 2 2625 499 
15 2626 36 67 3207 2655 2655 2677 2742 
2624 3480 180 748 2803 1894 1906 1790 1907 
1890 1686 102 474 1894 1768 508 102 1768 
1894 508 1907 2136 362 1568 1567 3260 2393 
2432 1085 2181 1544 1543 1525 2181 1526 1544 
1525 3169 365 366 1571 3289 429 1733 430 
2547 890 822 891 2757 961 962 904 2517 
1612 1614 429 2600 931 933 871 2291 2260 
2261 3191 2201 2166 1593 2167 3507 3179 1885 
3341 3618 3507 705 101 3618 3341 705 3507 
3341 536 112 1885 3331 111 536 76 3501 
3331 705 314 3331 76 314 111 1896 124 
213 680 489 1742 2626 2676 2073 1479 1433 
1431 2103 1372 1374 2126 2285 912 914 849 
2285 3309 970 969 2054 3286 1477 2074 2517 
1614 2516 2545 3155 1649 444 445 3155 826 
893 824 3155 824 749 826 2698 2761 559 
3235 3042 2622 2589 3043 2627 2623 1727 3300 
2007 3151 2035 367 2894 2893 3209 2877 2040 
436 433 1582 2030 1867 1862 1851 3214 1726 
407 3292 2005 1840 1807 1809 2819 137 548 
2005 3596 3472 1127 248 3597 2708 1129 3462 
3472 2825 1127 1125 3623 247 1125 248 819 
2787 2825 2751 3240 2128 3280 2106 2196 840 
845 774 2576 2542 1548 2599 3046 3316 2636 
2664 2575 1404 1454 2541 2775 2792 900 902 
2877 2110 2087 3209 2090 391 1630 392 3427 
278 1630 1631 3565 3427 1631 278 3565 2091 
1631 2090 182 2811 754 3231 2805 2792 2811 
2812 2804 3231 2793 2810 1887 1890 1893 1784 
1888 684 243 92 3327 75 1784 523 116 
1891 681 2814 2688 1339 2710 2689 2688 1339 
1279 2710 2771 817 815 885 3194 2732 2710 
2771 2670 449 450 1654 2643 448 1653 2611 
3560 298 1653 299 2611 1653 1652 448 3562 
3420 1654 299 3298 1418 1420 2499 3404 294 
749 747 3564 293 1648 294 2160 842 771 
2159 2218 1542 2223 3225 3395 1994 1797 1969 
2045 1261 1330 1263 2017 1835 1801 1799 3290 
1413 2311 1462 2598 2630 1450 2599 2744 620 
637 640 3044 2563 3300 2593 2745 2768 640 
2744 3062 3279 3081 3060 3061 3080 2753 3069 
3617 3350 1804 3499 43 2824 484 330 3499 
3350 1804 326 3013 3253 3315 2559 2343 1460 
1502 3222 3287 2570 2568 3241 2294 1033 986 
1035 2147 1511 1545 3230 2186 1366 1364 1421 
2407 1024 974 1023 2147 1526 1544 2181 3294 
1592 1591 414 2230 2257 419 2256 2358 996 
1043 994 2110 1709 415 414 3586 2437 664 
3408 3532 2398 660 3385 2371 2336 918 974 
2153 2127 1309 1307 2220 1301 1364 1303 2382 
2407 2371 973 1423 3148 2186 1366 3220 2294 
2263 2264 1922 120 1770 1771 1922 378 1770 
120 2839 3251 2832 3171 2844 2836 2854 2852 
2019 1995 1386 2018 2792 2805 2811 756 2785 
596 553 2749 2813 529 540 133 1886 129 
520 1781 1888 129 87 1886 3259 2410 977 
2446 2135 1566 1567 361 3322 150 594 595 
3610 3491 594 3320 1996 1970 1260 1962 1981 
468 467 1774 3306 376 2062 2064 2838 1943 
1956 1939 2739 440 50 1656 588 586 3180 
156 3438 3378 438 30 3195 2406 1302 1234 
3229 2401 1751 3254 2274 1482 1481 2273 2522 
1105 1089 1106 2945 2936 2310 2280 2555 1089 
1106 2522 2484 2516 399 2483 2516 1614 1612 
399 3267 2639 897 2640 3038 2546 1734 3289 
2459 3000 443 1731 3049 2691 2713 3267 3167 
1608 1610 431 3187 2352 3263 3193 2428 818 
820 2460 2488 820 889 2460 2428 820 741 
3268 3490 190 766 3319 3394 160 576 190 
3490 3319 160 190 3611 3352 766 2755 3490 
3394 160 2755 2811 566 182 183 3272 2812 
2807 3231 2795 2806 630 624 2785 604 597 
596 3142 3134 3312 3133 3360 1980 532 79 
1802 1937 1980 1800 3438 245 763 30 3438 
30 763 3378 1887 118 541 545 1891 1894 
1893 1890 1890 84 75 545 3516 3362 1790 
1894 2814 1891 681 1889 1913 1917 1827 1905 
1894 473 121 1768 1891 1688 116 1686 3323 
1890 534 519 3356 740 742 247 3493 3492 
767 3356 3623 248 740 247 2752 1202 1123 
1118 2643 834 759 2712 2612 2643 1737 2644 
2643 1653 449 1654 3420 299 759 757 2403 
1424 1474 1472 2494 1088 1104 2465 3108 3010 
2992 2991 3287 1034 985 1032 1993 1998 1392 
2016 1934 1854 1952 3257 1940 377 120 1771 
1953 1877 1869 1871 2057 1842 1812 1810 2131 
772 771 689 1843 2056 2057 1812 1980 532 
79 117 1938 117 535 524 1980 1798 1800 
1937 3234 1620 3305 2628 2643 757 759 834 
3283 1470 1420 1422 2577 3296 2544 1616 2548 
824 823 747 3164 2616 2585 3299 3222 1461 
1460 1502 2342 1410 1461 1411 2507 2536 1029 
2523 3563 3428 1177 223 3538 222 672 3415 
575 613 2676 3207 3496 3337 575 2676 3337 
488 490 2676 2588 1292 1355 2620 2623 25 
1691 13 2728 2779 2703 2727 2729 554 553 
2784 2795 2779 2784 598 2909 3311 2165 2200 
2459 747 2548 823 2456 3167 398 2484 2486 
2487 1732 3000 2457 432 1608 431 2010 80 
1805 514 2010 514 97 80 2781 618 591 
622 3069 2718 2719 2783 2725 327 491 328 
3320 3083 594 2725 3320 481 492 491 1986 
1984 409 3244 3433 276 715 713 2163 852 
790 860 2879 2205 2225 2207 3305 1737 426 
425 1625 138 2039 1583 2818 1985 3210 2819 
3214 1725 407 1726 3546 220 674 3392 3417 
1182 1180 221 2850 3247 1988 3238 3238 3247 
1324 2049 2823 327 28 491 2823 621 590 
2700 38 2725 2700 329 2700 2679 1689 2725 
2823 590 621 592 2700 621 2725 2823 3191 
2260 1638 3224 2202 2201 1607 2167 3048 2641 
2610 2609 2324 940 942 2357 2355 880 812 
882 2499 1470 1420 3283 2441 2468 1472 3285 
2124 1528 1546 1527 2777 1764 502 439 2747 
618 591 2781 2777 2719 1764 2718 2701 2766 
2681 2680 2754 2739 2718 2777 2772 187 762 
764 2783 2747 2781 618 2799 649 610 572 
3291 2346 1021 1062 2103 1374 1429 1431 3306 
2012 466 1989 1983 368 1714 369 3253 656 
655 191 3274 462 1660 461 3315 2496 2466 
1663 3315 3253 1147 2559 2429 2354 816 2390 
2460 820 889 888 2699 493 31 27 2654 
31 360 2699 2699 2742 583 2677 2699 61 
34 493 2406 1306 1304 1236 2269 63 1670 
1669 2404 2442 1367 1424 2328 1668 56 1667 
2363 660 56 661 3471 3268 743 2485 2613 
1005 1006 1053 2036 411 1713 1712 2140 388 
387 1634 3293 802 870 800 2726 615 614 
635 3078 3081 3060 3062 2496 1663 191 1662 
2677 583 616 2742 1920 1796 1833 1830 1899 
1895 99 1908 84 2814 1887 1890 1887 542 
84 541 3276 551 118 543 2689 1274 1272 
2711 3053 2766 2656 2681 2774 835 904 837 
3611 2755 503 3352 2366 1761 1751 57 2401 
349 1751 1761 3164 2616 3287 2585 2383 1700 
336 335 2543 400 401 2544 2515 400 1696 
1695 3385 235 659 234 2358 2326 2325 994 
2893 2137 3311 2138 2820 2031 2032 2040 2455 
1698 2482 2483 2562 338 339 1554 3020 2528 
2563 2564 2990 2422 3167 2423 2443 2470 1535 
2454 2578 2547 891 2551 2949 2319 3184 2958 
2552 950 1005 1004 2140 3301 387 2139 2867 
2035 3169 2065 2084 144 1570 376 2084 2062 
144 376 2497 1760 3297 2495 2221 1417 1419 
1362 2815 1198 1200 315 1888 1889 684 1892 
542 118 1886 551 1930 1914 1335 1916 2827 
1906 1904 1894 1894 1825 1788 1828 1906 1792 
1790 1907 3242 3298 1416 2565 2298 2330 2322 
347 2299 1753 457 1752 3229 2401 2427 349 
2401 3229 1751 349 2230 1705 1706 2229 3025 
3037 3296 2577 2612 2643 2611 448 2738 1012 
1014 2760 2577 1616 1618 3296 2612 1737 1736 
3296 2639 753 830 828 3289 1732 3000 2457 
2564 1693 1694 2563 3305 2612 1737 2644 2564 
2593 1693 2563 2041 206 2011 3238 2019 1442 
1386 1387 3238 1324 2020 2049 2070 2099 2097 
1439 2098 1323 1383 1322 3069 2753 2798 3080 
2768 2767 646 640 405 2627 404 2656 3045 
2595 2596 3242 2741 2762 651 602 3154 3297 
2994 3003 3479 2698 561 168 3003 2994 3014 
2497 2746 635 2742 2726 2562 1554 1553 338 
2623 1552 45 25 2623 13 1552 25 2752 
1118 175 1116 552 555 2786 560 2147 2152 
1511 3230 2899 2151 2187 3230 2152 1544 1509 
2181 2152 1509 1544 1511 2984 2407 2419 2433 
1570 2087 365 143 2071 2070 1440 2099 2099 
1440 1487 1439 2850 3249 2018 2841 2071 1489 
1441 2051 2075 1547 1517 1515 2121 1438 2120 
2143 2326 992 1039 3284 2266 2264 988 3284 
2034 1572 1571 3169 2035 367 366 1712 2124 
2100 1528 1527 2119 690 770 692 3530 273 
690 3457 3391 2095 686 304 2069 686 2095 
2119 2095 685 686 304 3482 304 685 2095 
2095 1808 304 1804 3391 303 1804 304 2059 
1850 1851 2061 2865 2039 2887 2092 2887 2197 
2163 2207 2163 790 783 711 2618 1141 1220 
1271 2586 241 1143 1141 2586 1141 1220 2618 
2778 601 627 3279 3043 2591 2723 2625 2619 
2558 3274 2587 3503 3344 585 2654 2620 2651 
1344 2621 2619 2587 1222 2558 2591 3043 2723 
3031 2574 3316 1347 2604 2573 1348 1284 2574 
2660 2661 989 2633 2574 2540 1404 2575 3316 
2636 1346 1347 2634 807 809 730 2127 2150 
1368 1307 2127 2126 2314 2281 2150 2127 1368 
3148 2960 2361 2358 2393 3209 1569 1570 2084 
2294 1035 986 988 343 2229 2228 3218 2921 
2232 3311 2231 3217 1568 1569 364 2421 397 
60 1700 2971 2349 2350 2319 2760 1014 959 
1012 2740 603 602 2741 2674 1343 1277 1278 
2651 1343 1344 2621 3479 168 1128 2698 2746 
648 2762 3271 2765 3271 647 643 3059 2741 
2762 3074 2698 1209 1126 1128 2697 2672 1211 
1130 2715 1011 1058 1057 2796 645 644 632 
3082 2797 2796 2780 2805 2791 2808 2809 2805 
567 568 607 2801 2810 604 2802 2795 598 
624 625 3250 641 2797 2794 2779 625 599 
598 2795 624 598 2784 3231 831 2793 2792 
3231 831 829 2793 2805 756 758 184 2309 
2409 2337 2373 3579 3315 657 238 2309 1229 
1297 2279 2409 861 922 2445 2309 2409 2339 
2337 2337 714 712 791 2374 1225 1148 1146 
2444 2445 2339 2340 2278 710 788 789 2309 
1150 1229 2278 2374 793 714 2337 2408 1025 
1066 2434 2372 975 974 1024 2433 2395 1066 
1065 2279 1297 1360 1299 2967 2246 2221 2220 
2313 857 919 2344 2222 3256 1417 1467 3260 
2465 1069 1103 2977 2408 2372 2407 2434 1066 
1067 1025 2915 3204 3256 2967 2222 1465 1417 
2248 2953 2405 2333 2332 3283 1472 1470 1422 
2975 2404 2405 2369 3213 2964 2965 2368 2913 
3273 2176 2214 2288 421 420 3184 3299 1107 
2557 2555 2513 1455 1497 1456 2997 2510 2478 
2477 2416 2452 1458 1408 2452 1457 1458 1407 
2632 873 933 935 3222 1462 1461 1503 3222 
1461 2311 2342 2451 1288 1352 2450 2341 2311 
1411 2342 2010 136 108 476 2010 1721 1720 
476 2848 3214 1985 3162 1979 136 108 2010 
3543 3347 108 1979 3543 515 108 3347 2819 
2031 433 2040 2837 1960 1941 3162 3210 2032 
1861 1841 3295 1739 482 44 2628 2627 2656 
404 2564 1694 401 2543 2628 1620 1619 403 
1988 2011 142 3238 2902 3182 2141 2173 2098 
1383 1384 2097 2098 2097 1384 3247 2121 1382 
1438 1437 2122 1383 1322 2098 2122 1322 1383 
1382 3212 1527 1526 1486 2143 1485 1438 2120 
3200 3196 2941 2869 2007 1712 1713 367 2755 
33 483 438 2755 768 763 766 2755 50 
33 438 3607 272 694 271 3188 3240 1378 
3258 2142 1170 1168 1247 3598 3434 1168 2142 
3434 2142 1170 1168 2255 2286 341 2287 2956 
3269 2317 3220 3010 3011 2463 2491 3232 359 
1564 358 3232 358 1564 2198 359 2239 3232 
71 2255 342 341 2254 2958 2348 3184 2957 
2147 3212 1526 2181 1964 1943 468 1956 3546 
3392 674 1962 1962 208 675 674 2850 2018 
2020 2841 1996 1962 1258 2020 2834 1944 1926 
1942 1993 1968 1394 1973 2841 1943 1964 2847 
2673 1209 2675 2698 3075 2769 2730 3145 2629 
1400 1451 2630 2697 167 1130 1128 3235 1126 
1124 169 2673 1211 1209 2698 2747 24 1765 
434 2777 439 2739 2718 2936 2446 2410 3259 
2410 921 859 2373 3181 2507 2473 2474 2409 
922 2410 2445 2410 921 977 922 2410 859 
921 922 2409 859 2373 2410 3222 1462 1503 
3290 3181 2507 2506 2473 2116 1658 1627 1659 
2060 2067 2061 2082 2116 1627 1626 1659 2061 
1821 1850 1819 2061 1848 1850 1851 1858 2001 
2026 1863 2196 845 776 774 2160 841 771 
842 3308 671 670 204 2042 146 1687 2063 
3203 145 1763 465 3203 1677 1687 2042 1987 
3238 1180 1256 3582 224 670 3429 3203 465 
1687 1677 2146 1252 1321 1320 3159 2870 3203 
2042 2094 3313 1675 2117 3210 1861 1840 1841 
3135 2927 2941 3205 2005 1840 3210 1979 2031 
1809 1840 2005 2689 1272 2710 2711 3076 2774 
2757 2756 2711 1272 1203 1274 2603 1283 1214 
2635 945 2750 2730 883 3304 1929 1914 1902 
1912 1927 211 1900 1925 677 210 678 1909 
1900 472 1899 1932 1266 1916 1933 1922 3171 
378 120 1919 1855 1868 1878 2006 2034 374 
3306 1955 1977 1859 1860 1941 2833 3171 1923 
3171 120 1575 1577 1910 1767 1923 1908 1899 
472 1685 1900 1899 1770 1767 472 2816 2817 
505 1908 1908 1767 121 99 2845 1952 1953 
1975 3034 2596 2565 3242 3070 2694 2705 3063 
2253 849 780 778 3188 1433 1431 2073 2253 
849 778 847 3240 1317 1378 3258 2882 2285 
2300 2125 2338 858 788 857 3259 858 920 
921 2313 2308 2336 856 2375 3307 2340 2376 
2341 1356 1411 2311 3264 3266 3226 3204 3042 
2746 2743 3043 2656 404 1621 1620 3179 709 
705 302 2744 640 637 2767 2768 646 639 
640 2681 21 331 1622 2149 2183 2282 2153 
3188 1376 1431 1433 2315 916 854 853 2882 
2103 3188 2125 2126 1372 1309 1370 2281 2183 
784 2282 2105 1372 1370 1427 2149 2127 1309 
2153 2307 2282 784 2183 2149 1239 1241 1162 
2189 704 784 785 2182 782 784 702 2183 
704 784 2189 3443 2183 1162 1160 2281 782 
853 784 2551 950 890 891 3250 3066 3081 
3272 3174 3277 2715 3312 1983 1714 1713 2008 
2590 2591 59 461 2595 1495 1451 1452 2469 
3216 1302 3195 2499 1468 1420 1470 3283 1422 
1420 1365 2963 2962 2401 3254 2401 2962 2366 
3254 3229 1560 348 1559 2963 3229 2322 2330 
2299 458 1668 457 2320 2351 1561 2322 3022 
3157 3298 2501 2657 1343 1342 2674 3029 3274 
2648 2561 2715 2716 3277 1057 3223 352 353 
1555 3034 2588 2566 2597 2527 1747 353 1748 
2526 339 1555 1554 2560 2527 1747 355 2498 
3223 1556 2467 2526 3223 1555 2498 2526 2528 
339 2563 95 1941 1924 1961 1924 1579 95 
379 1924 1579 1923 1941 1941 95 1924 1579 
1980 1938 1798 1937 3360 1980 1800 88 1980 
1884 532 117 1937 1802 1980 1961 3144 1937 
1961 1924 507 2817 3144 379 2555 1106 1090 
1107 3122 3050 3065 3052 2554 1091 1051 2584 
2491 1049 1002 1050 2613 1006 1005 2582 3178 
3227 2356 2391 2521 1049 1050 1089 3011 2521 
2555 2522 2239 1755 1756 2213 3273 2176 1483 
1436 3540 3442 706 266 2306 1539 1520 1521 
2306 1540 1539 1521 2312 1502 1539 1503 1581 
2255 2259 3232 2677 616 582 580 2746 2742 
617 2743 2677 582 9 580 2677 19 48 
504 2742 616 617 583 2653 357 356 27 
2653 357 1580 356 2699 61 493 27 3286 
1517 1519 1477 3171 3310 1575 1958 1957 1940 
377 3166 1958 369 370 1575 3251 3166 3151 
1958 3314 413 1590 412 2796 632 633 645 
2796 632 608 633 2809 568 607 2805 2789 
570 610 609 2773 2798 2789 2772 3084 2000 
2857 2863 3246 1844 2077 2026 2027 1874 2000 
2002 2191 2156 2157 846 2079 1849 1818 3302 
1976 1875 2003 2002 2848 2849 1959 2840 1954 
1871 1935 1936 2867 3151 3169 2035 2120 2099 
1439 2097 3198 3169 3209 2877 3204 2280 2248 
2247 2147 1544 1526 1545 2269 1670 63 2240 
3228 2363 1236 2406 2269 2271 63 1669 2271 
458 63 1669 2369 2332 1369 2405 2964 3213 
2965 3177 2270 2271 1754 2240 2298 346 1754 
1753 2298 2322 346 347 3273 2176 1436 2178 
3097 3135 3093 3095 1989 466 467 1679 3306 
466 2012 2033 3151 368 1574 1573 2123 3308 
1253 1175 2850 1988 2020 3238 3247 1384 1323 
1324 2483 398 1698 399 2516 1614 399 400 
3314 2088 413 1711 3149 2124 3303 3230 3278 
1031 2317 2284 3087 2844 2854 3088 2941 3278 
2284 3243 2326 3284 1039 2327 2074 1477 1517 
3286 2013 1834 1835 1799 1974 1990 2855 2851 
2046 1994 1261 2014 1994 1185 1261 1187 3189 
771 688 2131 3274 1662 462 2496 2621 1344 
1401 1343 2437 3252 2502 2438 2466 2495 54 
2496 3062 2621 2674 3060 3029 2650 2648 2619 
3041 2621 2620 2588 3480 2788 560 2803 2776 
957 898 3248 2788 742 819 767 3492 1120 
1123 3356 3356 2788 742 2751 3527 247 740 
3356 2751 742 740 819 2751 1125 1123 1202 
3244 409 410 1587 2038 1984 2860 3244 1984 
1725 1716 1723 3291 1019 1060 1020 2927 2251 
2284 3205 3221 967 910 911 2837 1954 1977 
2846 2009 406 1583 100 2724 620 589 587 
2823 38 1743 327 2627 1690 1727 404 2656 
405 1621 404 2594 402 403 1619 2680 1622 
1621 2681 3226 1541 1505 1504 3202 2218 2223 
3225 3225 1521 1522 1540 2188 2181 1509 1543 
3197 2174 1758 3182 3197 3313 1674 464 3273 
1435 1434 2215 3273 1436 1435 2178 3254 1752 
1751 348 3182 1673 2173 3237 3232 1564 359 
1581 2178 1436 1381 1437 2069 1181 1251 2048 
3457 2175 692 2118 3607 271 694 3434 3190 
770 769 840 2196 774 770 840 2118 774 
770 2196 2118 1251 1172 1249 2884 2227 3280 
2195 2944 2302 2306 2964 2463 1049 1001 2491 
2199 1706 139 343 2974 2396 2362 2361 2230 
418 1706 419 2198 1564 1565 358 3039 2607 
2579 2610 2990 2457 2423 3167 3000 3009 3289 
2990 3038 1734 2546 2550 3038 445 1734 2549 
2609 953 952 893 3289 1733 1732 430 2426 
2459 3000 2547 2457 1732 1731 431 3017 3038 
3174 3048 3038 2608 3155 2549 3048 2638 3057 
3050 1982 373 1774 374 1957 113 373 3166 
3192 3286 2102 2881 3306 467 466 1775 2854 
2856 1998 1993 2033 146 466 2012 2859 2847 
1989 3306 3306 1776 466 2033 2951 2291 2324 
2292 3288 3306 2034 2006 2021 1442 1443 1490 
3129 3020 3131 3133 3314 412 2089 2066 3198 
3209 3169 2084 2475 1219 1140 2476 2508 722 
801 724 2476 1219 1140 1218 2508 724 801 
2537 2449 1289 1221 1219 3307 2377 2376 2978 
2997 2476 2450 2568 2504 795 2447 2471 2475 
1221 2449 2447 2475 2449 1219 2476 2504 2475 
2449 2447 2611 447 1736 448 2581 1735 447 
2580 426 3296 1618 427 2667 830 897 2639 
2667 2611 2691 832 2573 1284 1285 1215 2632 
805 873 875 2540 1405 1348 1404 3038 2608 
2640 2609 3075 3046 3316 3047 3081 3082 3272 
3282 2542 1533 1532 2532 2665 1397 1395 1339 
3075 2688 2689 2666 2666 1339 1397 2665 2730 
943 2769 945 3248 896 894 1113 2106 1315 
1313 1376 2315 2314 916 853 2128 1313 1315 
1245 2281 2272 2126 2300 2281 853 851 2300 
2882 3188 2106 2125 964 969 2285 912 3188 
1433 1378 1376 2013 2017 1994 1799 2118 1319 
1251 1249 2126 1311 1241 1309 2149 2281 2148 
2126 2126 1241 1311 2148 1080 1078 2647 1110 
2539 1285 1348 1349 3287 2997 2568 2601 2539 
2538 1285 1349 2573 1215 1285 2572 2571 805 
728 726 2539 1349 1348 1405 2659 2632 2572 
2573 2574 2575 1404 1347 2574 1347 1284 2604 
2613 3270 1054 2638 2617 1108 1076 2616 2661 
1036 1038 989 2388 336 335 2383 3048 2641 
2642 2610 2614 1053 1092 1052 2425 1559 334 
335 2582 1006 1005 951 3154 2366 2400 2402 
2754 2739 2717 2718 2594 3305 1619 2628 3234 
3305 1620 425 3037 3033 3305 2594 2668 2692 
1011 956 3049 3305 2644 2612 3049 2712 2643 
2644 3296 426 1618 2606 3126 3174 3048 3017 
2577 2543 401 2544 2735 962 1115 1013 3269 
2316 1073 1097 3147 2359 3219 3255 2854 3160 
1999 3150 2054 1429 2073 2103 2345 972 916 
2314 3148 1368 1423 1425 2315 854 916 917 
2093 204 670 203 3203 1676 1677 3308 2898 
3308 2123 2094 2123 2093 3308 1175 2143 1437 
1438 1485 2101 3308 1177 1253 2072 1323 1254 
1255 2619 2620 1290 2587 2765 2767 647 3271 
2764 2727 557 2721 2779 556 557 2727 2764 
599 600 557 2728 1121 1205 1204 3082 2774 
2792 2775 943 2730 2769 3145 3302 777 697 
779 2161 779 2157 3302 3048 2610 2638 3039 
3289 3167 431 2457 2456 1699 2420 2455 2610 
952 953 1007 2456 1698 1699 2455 2610 2609 
952 2579 3007 2482 2515 2483 3048 2609 2610 
3039 1949 1971 1329 1331 1944 1926 1682 1943 
1996 1970 1962 1944 2019 1387 1386 1995 1996 
1327 1260 1970 3274 1660 462 1662 2673 2672 
1211 2698 2673 2672 1338 1211 3435 169 1126 
3235 3031 2592 2672 2722 2673 1338 2672 2648 
2673 2650 1338 2648 2650 1280 1338 1290 2619 
1220 1338 2648 2674 1342 1277 1343 2763 3235 
559 2761 2675 2761 2740 2698 1916 1266 1268 
1335 1949 1331 1333 1950 1909 1684 1900 1911 
1942 1949 2834 1970 2552 890 950 949 2356 
942 2357 2324 2430 946 886 2462 3577 295 
1649 3410 2519 1003 1004 2553 2321 1617 385 
2289 2288 2289 1617 2321 2432 1086 1045 1047 
1951 1447 1550 1968 1920 1938 107 2817 1906 
1830 1792 1920 3304 2852 1946 1945 2826 1900 
1896 1916 2817 107 505 1769 3144 507 93 
1938 2816 1768 121 132 1924 1937 1920 1938 
2817 1919 1920 1924 2816 1908 1906 1919 2859 
2012 1989 3247 3209 1569 1568 363 2876 3217 
2062 2085 3212 2099 1487 2120 2087 1709 1710 
143 2087 1710 1709 2110 2910 2201 2166 3311 
2894 2110 3209 2138 1958 377 3171 3166 2486 
3155 3000 2548 2485 291 745 743 2485 2488 
3268 743 3152 2547 746 2459 3554 293 746 
292 3152 1646 442 1647 2094 2117 2093 2146 
2172 1169 1171 1248 2146 1320 1321 2145 3582 
3308 1175 3429 2215 1379 1380 1435 2143 2178 
1437 2176 2718 3295 44 2717 3305 426 1619 
425 2755 1114 763 768 2733 838 761 1114 
3378 2717 1657 301 2717 1657 1656 438 3067 
2729 2784 2704 3066 3250 2779 3072 2205 2204 
3236 3200 2169 2171 2886 3293 3243 926 980 
924 2007 1713 368 367 3087 3084 2916 3091 
3245 2883 2314 2968 2285 2106 2272 2125 2272 
782 780 851 2182 2149 2183 2281 2281 2314 
853 2300 2281 2282 853 2314 1376 2125 2106 
3188 2705 993 1042 995 2347 65 336 1701 
2318 340 2286 2287 2383 336 1701 2347 2383 
2421 1700 2420 2384 2383 1701 2347 2384 2383 
2421 1700 2210 2217 1169 2172 2210 2173 2217 
2172 2510 2509 1217 1287 2476 2997 2450 2477 
2569 931 2568 2600 2569 2537 2600 2509 2632 
875 873 935 2659 2632 935 875 2569 871 
931 2600 2657 3045 2621 3062 2529 1466 1508 
1506 2542 1548 1496 2541 2706 941 879 939 
3277 2641 1008 2642 2659 937 935 2660 2451 
2477 1288 2450 2479 1407 1457 2452 2479 1406 
1456 1457 2647 1080 2671 3163 2646 2617 1076 
2616 2514 2542 1496 2541 3163 2694 1080 2671 
3163 1038 991 2660 2645 1093 1092 2614 2480 
2454 2453 1457 2625 1746 499 3207 3289 2546 
1734 429 3289 1734 1733 429 3038 3289 1733 
2487 3182 3313 1674 3197 3212 1527 2124 2147 
2101 3308 1253 2123 2042 2033 146 2063 3563 
224 671 223 2101 2123 1321 2122 2402 3297 
455 2400 3206 2439 2438 3252 2400 2438 1666 
2399 2400 1666 455 57 2468 3005 3262 3004 
3254 2366 456 2365 664 194 2436 659 2439 
193 1664 1665 2343 1538 1502 1501 2441 3285 
1472 2403 3264 3226 3266 3290 3225 1541 3290 
1540 2507 981 1029 2536 3015 3241 2978 3146 
2474 2448 1027 2446 2473 978 1028 979 2602 
1216 1215 2572 2706 2705 939 2684 2510 1216 
1217 2571 3507 3179 705 101 2572 807 805 
875 2632 805 875 2572 2602 1215 1216 1136 
3506 514 1883 82 3505 3335 573 163 2625 
3207 2723 2726 3207 29 489 490 2722 603 
2697 2740 2746 648 635 651 2929 2257 2258 
2230 2229 1706 343 1705 2136 2137 3209 363 
2492 2465 1088 2522 2463 2491 1001 2462 3260 
1085 1102 2396 2962 2364 2365 2329 1063 2381 
1022 3219 2291 2323 2260 3191 2727 1122 1121 
171 3279 2763 2761 3235 3235 1277 1207 2675 
3250 625 626 599 3250 641 626 625 3294 
415 2166 2167 2984 2394 2419 3147 2263 984 
930 986 3113 3116 2961 3102 3096 3255 3284 
3147 2894 2138 2166 3294 2114 2169 3215 2091 
2140 1634 387 1635 3198 2084 2062 2876 2264 
932 2263 3293 3178 2323 2356 2324 2819 3210 
2040 2009 3084 1975 1952 2845 3536 18 1138 
207 2865 2032 2039 2067 2039 2865 2887 2858 
2819 2031 2040 3210 2848 2009 3210 1985 2031 
1811 1813 1841 2032 2031 1813 1841 3060 3074 
3030 3059 3072 2703 2683 2704 3250 631 630 
2807 2598 1494 1450 1451 2527 354 353 1747 
3305 2644 1738 3234 2497 2525 1748 2495 3297 
2439 455 2400 3003 3019 3223 3014 2615 1108 
1091 1092 3056 3058 2661 3051 2616 3287 1032 
1034 3287 3146 2570 3241 3164 3241 3153 3146 
2400 57 2366 2365 2328 2364 2363 2406 2962 
3154 2365 3195 3195 1234 1232 2436 2406 1304 
1302 1234 2406 1302 1304 3216 2406 1236 1304 
1234 2497 2527 1748 2525 2597 1412 1357 2565 
2530 2566 1357 2565 2529 3005 2500 3004 2530 
1357 1359 2565 2103 2074 1477 1427 2129 1166 
1245 2154 2249 967 966 3221 2867 2007 3151 
2035 2917 2252 2225 3200 3162 371 1577 3310 
1976 1877 1875 1874 2191 848 846 2157 2038 
3236 1586 3244 2828 1922 1910 1909 2190 844 
909 2158 2845 1976 1954 2846 3092 2955 2947 
3205 3278 3243 982 2284 2284 2252 980 1018 
2907 2188 2222 3202 2915 3204 2988 2906 2396 
1102 1101 1083 2524 1072 1106 2557 2517 429 
1614 2545 2516 400 399 2515 2516 2483 2515 
399 2516 2544 1614 400 3039 2579 2609 2610 
2545 429 1614 428 3016 2539 2512 2511 2483 
1698 1696 399 2483 399 1696 2515 3207 499 
489 29 2655 2677 500 504 2626 3207 489 
2676 2307 2153 2189 2185 2189 2307 784 2183 
2307 854 784 2282 2307 785 854 855 2307 
855 854 917 2307 2335 2185 2308 3250 641 
630 631 3272 2810 3067 2793 2703 1275 1205 
2682 2702 3235 1206 2721 3183 2658 2682 3208 
2704 1274 1203 1204 2728 2703 1205 2727 2703 
1275 2682 2683 2703 1205 1275 1204 3265 2452 
2453 3168 2575 1403 1347 3316 3023 2660 2684 
2659 2664 1345 2665 3316 3145 999 1046 2759 
2604 3316 1347 2636 2514 2513 1497 2481 2851 
2855 2871 2045 2499 1466 1418 1468 2096 3258 
2884 3158 2229 343 1706 2199 3137 3103 2928 
3105 2558 41 58 654 3111 3261 2921 2929 
2018 1385 1325 1386 1996 2018 1327 1995 1996 
1995 1327 1970 2018 1327 1386 1325 2018 1386 
1327 1995 2943 2975 2953 2932 2953 2333 2405 
3228 3228 2363 2406 2328 3228 661 2363 2328 
2953 2405 2406 3228 2363 1157 1159 1236 2363 
2406 1157 1236 3569 3456 1157 233 2405 1306 
2406 3228 2328 56 661 2363 2680 434 14 
1622 2747 434 1623 24 2680 2719 434 2747 
3283 1365 1420 1363 2405 1306 1367 1304 2442 
1422 1367 1424 2403 2369 2367 1426 2364 2329 
2953 2328 2405 2406 1304 3216 3216 1363 1365 
3283 2468 3283 1472 1470 3157 2499 3283 3004 
3213 1428 1430 1478 3127 3021 2529 3165 2499 
1418 1420 1468 3262 3005 3117 3004 1930 1916 
1335 1933 2829 1949 1911 1932 1924 1919 1937 
1936 2872 3281 2021 3160 2830 2828 2827 2836 
1909 1770 1922 1910 1909 1922 1771 1921 2834 
1971 1950 2843 1939 470 1772 1771 1973 1491 
2022 2021 2070 1384 2097 3247 2850 1989 1988 
3247 2070 1384 1440 1439 2050 2018 1385 2049 
3198 3306 2062 2064 3288 1981 3306 1982 2086 
140 1778 2085 2033 1777 146 2063 2816 132 
506 1907 1895 473 1686 99 3304 1914 1930 
2826 1898 1826 1880 1905 2443 1536 1499 1535 
3130 3028 3011 3110 2481 1497 1498 1456 3163 
1040 1038 1080 1934 1935 1868 1918 1953 1877 
1871 1976 3205 3309 2873 2926 2842 1966 1992 
1967 1930 1335 1947 1933 3291 3309 1019 1020 
2283 2251 1061 1017 2035 1572 367 3151 2851 
1965 1991 2842 1259 1261 2045 2046 1317 2118 
1249 1319 2884 3309 2227 2226 2055 1388 1433 
1444 2249 1017 966 967 3221 967 2252 2251 
3096 3255 2294 3284 3163 2661 1038 2660 3063 
2684 2660 3163 3063 2694 2684 3163 2510 1287 
2478 2477 2190 2191 846 2156 2854 2856 1993 
2852 3175 2131 2057 2056 2190 2156 844 2158 
2025 1444 1388 2055 1973 1448 1491 1445 1975 
1877 1874 1870 1975 1870 1869 1877 1976 2003 
1875 1977 1952 1854 1856 1831 2016 1392 1334 
1332 1993 1392 1334 2016 1090 2554 1091 1051 
2994 3297 2466 2495 2290 1562 2322 2320 2896 
3197 3313 3182 2318 1702 65 2347 2351 1561 
336 65 1947 1337 1550 1393 1929 1269 1195 
1915 1929 1913 1195 1902 1929 1337 1946 1930 
2852 1946 1968 1947 2135 1568 147 1567 2135 
361 147 1779 2135 2134 361 1779 2876 3209 
2084 3217 3273 2274 1482 2241 2085 2063 1777 
2062 2108 147 1779 2135 2085 140 1777 2063 
2876 2892 3209 3217 1829 3257 1831 1854 1965 
1832 1795 1831 1969 1991 1965 1948 2014 1261 
1187 1994 1969 1965 1795 1948 1969 1948 1189 
1991 1967 1993 1334 1992 1378 1396 3188 3258 
2864 3175 2044 2855 3278 3220 2869 2941 2193 
2158 843 2159 3375 3268 1644 2428 3218 1565 
1566 2198 3273 2178 1435 2215 2928 2254 2229 
2228 2255 341 342 1564 3184 421 420 1704 
2229 343 342 1705 2199 1717 139 1706 2199 
139 1717 2165 2200 2199 1717 2165 2940 2355 
2323 3224 2200 417 1707 1717 3010 3001 2462 
2991 2554 1051 1090 1050 2614 1092 1053 1093 
2553 1051 1003 1004 3184 422 421 1703 2102 
1546 1547 3303 2448 2493 1069 3260 3222 2311 
1462 3290 2378 1353 1410 2377 2413 1289 1221 
2449 2978 2535 2534 2505 2533 2534 2568 929 
3235 2763 559 558 2763 559 601 2761 2698 
3235 1126 1207 2698 3235 1207 2675 3232 3176 
358 2198 2494 2523 1071 2524 2464 2492 1048 
2463 2925 2215 2242 2216 3197 1758 496 1759 
2201 416 1593 2166 2490 947 1002 2462 2973 
2489 2460 2518 2228 342 2254 2229 2219 1235 
1158 1156 2345 916 917 2315 2371 2335 917 
918 2970 2346 3269 3255 3220 3269 2317 2293 
3147 3219 2359 2394 3594 3411 1186 218 2686 
734 811 813 3599 251 734 250 3075 2688 
2664 2730 2687 2664 2731 2663 2664 1282 2636 
2663 2636 1282 1345 1346 3035 2605 3316 3047 
2464 1048 1087 1047 3178 3173 2357 3227 2928 
2286 2254 2255 3590 3446 722 2508 2491 1002 
1049 1001 2490 2491 1002 2520 814 812 3224 
735 3224 737 814 735 2355 884 814 2390 
3224 1641 1639 1642 1642 3193 3263 70 2667 
899 830 832 2641 1009 1008 954 3277 1056 
1055 1008 2981 2999 2456 2420 2738 2760 1014 
2758 3563 3308 1177 2041 3129 3133 3312 3132 
2100 1527 1487 1528 3212 1526 1527 2147 3136 
3095 3099 3113 2100 1528 1487 1488 3281 1488 
1489 1529 1982 1956 1773 1957 2834 2841 1995 
3249 2967 2247 3256 2221 3303 3230 1471 2151 
2409 2410 922 859 3303 2124 1546 1513 2382 
1023 2419 2407 2394 1065 1099 1100 2433 2419 
1065 2407 2434 1025 1067 2418 2360 1100 1081 
2362 2362 1100 1081 1101 2361 1081 1041 1083 
1396 1378 3188 1433 3240 2118 2096 2196 2128 
2129 1313 1245 2129 1166 1243 1245 2103 2126 
1374 2125 2129 1245 1243 1313 3310 370 371 
1577 3171 120 1922 1940 1957 1772 377 1940 
3166 1958 1574 3151 1957 113 377 1772 2006 
1574 373 1573 3249 2018 1995 2019 2898 2094 
3313 3203 2979 2988 3204 2986 3101 2900 2909 
2893 2295 3284 992 2326 2395 2362 1100 2360 
2408 1024 1066 1025 3288 3198 3306 2859 2087 
2110 1709 3209 3225 2306 1521 1540 3169 1571 
1570 365 3159 2870 2042 2866 2012 1989 1679 
466 2108 1778 147 364 2043 2041 206 2011 
2101 2098 1323 2072 3308 1677 205 204 2859 
3247 1989 2850 2101 1322 2098 2122 3308 1676 
2093 2094 2179 1318 1379 2216 2904 2179 2145 
2178 2326 1041 992 994 2326 1041 1039 992 
3255 2359 1037 3284 2326 1039 1041 2327 2295 
3284 990 992 2358 1043 1041 994 2393 1043 
1045 1085 2154 1245 1168 1166 3600 2154 698 
3450 3450 2154 1168 1166 3598 270 1168 271 
2154 1168 1245 2142 2302 2306 1520 1521 2217 
1318 1248 2180 2255 1581 2259 1563 2216 1379 
2242 2243 2176 1483 1484 2214 2244 2277 1312 
2276 3237 1673 73 3182 2273 1432 1434 1481 
2464 1087 1088 2465 3176 495 494 358 2613 
1005 1053 2583 2117 1675 202 3313 2912 2213 
3176 3237 3206 3297 2400 2439 3195 3216 1302 
2406 2554 2553 1051 2520 3085 3212 2181 2177 
2147 1544 1511 2152 2124 1513 1545 1546 2969 
2371 2345 2382 3230 1511 1513 1471 2187 1471 
2151 1421 3262 2441 3283 2442 3045 3165 2598 
2595 3058 3065 2671 3270 2454 2481 2470 1534 
3006 2514 2532 2503 2454 1534 1498 2481 3124 
3014 3034 3131 3270 1053 1054 1093 3064 2690 
2669 2693 3596 249 738 248 2688 1395 1339 
2665 2709 1273 1279 1208 3248 2770 894 3194 
2771 885 894 887 2770 3067 3194 3248 3248 
896 1113 955 2720 3145 1044 2737 3272 3183 
3072 3066 2220 2219 2184 2313 2338 2278 2246 
2245 2308 856 918 2336 2905 2220 2184 2336 
2336 918 919 856 2345 972 917 916 2407 
1023 974 973 2969 2905 2335 2371 2336 919 
974 2372 2894 2931 2942 2952 2168 2139 387 
3301 2114 388 1634 1633 2113 388 1599 1601 
2112 1590 1591 1601 2112 1599 1601 2113 2113 
1599 388 389 2886 2114 2113 2140 2114 1633 
1634 2171 2139 2112 1591 1601 2089 2113 1599 
2112 3255 2346 1098 3219 2089 1589 412 1590 
2786 562 560 2803 2729 1119 1203 1117 2787 
2771 887 817 2749 1116 1117 1201 2120 1439 
1487 1486 2177 3212 1485 2143 2120 1487 1439 
2099 2241 1482 1523 2274 2214 1484 1524 1483 
3209 1709 143 363 2108 1779 2134 2135 2085 
1778 1777 140 2085 144 1777 364 2733 836 
838 2753 2734 905 903 2712 2753 836 905 
2712 2712 905 903 836 3234 2680 3080 3069 
747 2459 2548 2486 2990 2457 3167 3289 2608 
3155 893 2609 2300 849 914 851 3280 963 
912 847 2281 2126 2314 2300 2272 2129 2155 
2148 2272 780 2155 2253 2281 2272 2300 851 
2272 2129 2148 2125 2272 2253 2155 2129 2883 
2300 2126 2125 2883 2300 2125 2882 3262 2441 
2442 2404 3017 3008 2516 3009 3038 3174 2640 
3026 3003 2467 3223 2498 2657 1401 1400 1343 
2822 2652 40 1741 2519 949 1004 1003 2228 
1564 2198 3232 3181 3307 2996 2473 2393 1085 
1045 2432 2258 1611 1613 3211 3263 451 1740 
452 2257 418 419 1596 2354 1642 3193 3263 
2319 1602 2350 2321 1987 142 673 3238 1963 
1681 208 1680 1963 1681 209 208 1963 208 
209 1962 209 1944 1963 1962 1964 1680 468 
1681 1981 1964 468 1956 3044 2593 2627 2628 
3082 2809 2796 2808 3062 2657 2630 3208 3068 
2713 2734 2714 2643 2691 757 834 2643 2712 
2691 834 757 2611 2691 2643 3579 238 657 
237 2611 757 2691 832 2187 1469 1421 1419 
2187 1419 1421 1364 2187 1364 1421 2186 2221 
1364 1301 1362 2221 1364 1419 2187 2221 2186 
1364 2187 2221 1419 1364 1362 2970 3147 3219 
3255 2886 2169 3215 2114 2206 868 870 2233 
3314 413 412 1711 2233 2263 930 932 2293 
1031 984 1033 3293 2235 872 2209 2894 2952 
3096 2931 3236 1587 392 1586 3204 3256 2248 
2222 2407 1024 1023 1065 2395 1101 1066 1100 
2945 3266 2340 3307 3256 1509 1469 1467 2188 
1509 2181 2152 3141 3106 2985 3120 2393 1043 
1085 2361 2371 918 973 974 2185 2335 2184 
2308 3148 2184 1368 2150 3148 2105 1370 1425 
3148 2105 1425 2104 2127 1368 1370 1307 2184 
1305 1366 1368 2514 1533 1497 1496 3164 2585 
3146 3153 2605 2576 1453 2599 2514 2481 1497 
1534 3065 2695 2694 2671 3016 2512 2540 3170 
2220 2184 1303 2186 2220 1233 1303 2219 2308 
918 2335 2336 2313 2336 919 856 2313 919 
2336 2344 2220 2245 1233 2219 2189 2219 2308 
2185 2313 856 857 787 3142 3062 3133 3131 
3032 2562 2527 3300 2653 45 1580 357 3142 
3127 3165 3124 3053 2724 2623 2743 2746 2762 
648 651 2746 2743 617 636 2591 2625 15 
2626 2743 619 617 636 2657 1400 1342 1343 
2746 636 648 2765 2812 606 607 2807 2805 
2808 607 2809 2807 607 631 606 2807 631 
607 2808 2807 606 631 630 2797 2796 632 
2808 3248 957 898 955 2957 2318 2347 2348 
2198 495 2174 3176 2301 1481 1432 2273 2439 
2438 193 1665 2924 2213 2238 2240 2924 2238 
2213 2923 3229 1751 348 3254 2443 1514 1512 
3285 2987 3283 3216 2442 2368 1476 1518 3285 
2403 2369 1424 2404 3156 3285 2468 3262 2976 
2370 3285 2368 2942 2325 2952 2295 2430 3227 
946 2462 3122 3050 3052 3040 2334 1518 1520 
1538 2893 2138 3311 2910 3010 2463 2992 2991 
2179 1320 1380 1318 2174 3176 1757 3237 2174 
495 1757 3176 2179 1318 2216 2180 2911 3237 
2173 2211 2216 1316 1318 1379 3237 460 73 
1672 2243 1377 1314 1316 3237 2173 200 1673 
2086 140 498 1778 2179 1379 1318 1380 2179 
1379 2215 2216 2439 3297 454 2466 3252 2466 
1664 3315 2402 2427 1761 350 3002 3252 2439 
3206 2558 655 58 3253 3252 192 1664 193 
3167 397 1608 2422 3229 2330 347 2322 2613 
1053 1006 1054 2615 1092 2614 2645 2613 1053 
2614 2583 2607 2638 1006 1007 2610 953 952 
2609 2517 2516 1612 2484 2518 822 821 3152 
2050 2070 1440 2071 3238 1324 3247 2072 2050 
1386 2018 2019 1973 2022 3160 2021 2867 2034 
3151 3288 2050 1385 1440 2070 2050 2018 1386 
1385 2051 1489 1441 1442 1997 2019 1442 2021 
3247 3238 2011 1988 2283 1061 1060 1017 2052 
1531 2022 2024 3205 3221 2251 2249 3150 3286 
2947 3192 2054 1477 1429 2103 2052 1530 3286 
3281 2382 2381 972 2345 2853 2021 1972 1973 
2024 3286 3150 3160 2074 1517 1475 2075 2074 
1475 2104 2075 2968 2381 2345 2314 2266 988 
990 3284 2882 2073 2054 2873 3192 2104 3303 
2075 2283 1060 1061 2316 2054 1492 1519 2024 
2746 2741 635 2726 2621 1401 1344 1355 2966 
2379 2343 3222 3030 3043 2589 2590 3055 3045 
2630 3062 2794 3271 642 2780 2657 1399 1400 
2630 2657 2630 1400 2629 3041 2620 2587 2588 
3154 2400 3297 2402 2657 1400 1401 2629 2651 
2674 1278 1343 2683 2658 1275 2682 2795 630 
625 624 3248 955 898 896 2732 1202 1273 
1208 3145 1044 995 2705 2749 553 552 596 
3067 2801 2785 3194 2771 887 894 3194 3134 
3066 3183 3272 2806 630 606 2807 2548 3155 
2579 893 3117 3157 2962 2987 2963 2401 3229 
3254 2365 1666 456 1667 2365 57 456 1666 
3003 3297 3223 2467 2365 456 57 2366 3022 
3298 2530 2501 2987 3195 3216 3157 3201 2972 
2420 2981 2344 920 2380 3259 3141 3112 3264 
3181 2448 1069 1068 3260 3012 2465 2494 3181 
2214 2177 3202 2218 2398 2364 2406 2363 3195 
1302 1232 1234 2987 2442 3216 2405 3532 3385 
1155 2398 3201 2963 3229 2972 2398 2406 2364 
3195 3385 234 659 660 2405 2442 1304 1367 
3164 2585 2557 3299 3239 1516 1536 1514 2370 
2368 1518 3285 3285 1474 1516 1514 3010 2554 
2520 3027 3194 2785 2732 2786 2804 2803 2802 
3194 555 552 2786 2752 2749 2732 1116 1201 
566 2811 182 3231 2804 2802 564 2810 2030 
2058 1867 1851 2132 781 2133 2162 2080 699 
701 781 2170 792 713 715 3550 2081 701 
3387 3550 312 1822 313 119 2031 2820 2040 
2060 2061 1848 2082 3533 3349 1882 511 2060 
1848 1817 2082 2820 2032 1845 2060 2820 1845 
1817 2060 2082 1819 1817 83 2082 83 106 
1819 2082 1848 1819 2061 3542 214 1194 215 
1903 1914 1268 1197 1901 130 683 680 1901 
1896 1916 1903 1891 1890 1686 1894 1895 1896 
1685 124 1709 363 2138 1708 2064 1571 1570 
3169 2035 3169 1572 3151 3099 2892 3209 2876 
2064 375 1571 2034 3255 1075 1097 3269 3288 
1982 3306 2006 2064 1570 1571 376 2064 2084 
1570 376 3310 1575 370 1577 1955 1936 1960 
1961 2887 3292 2092 2039 2010 476 97 1721 
1979 1806 1839 1805 1979 2010 1806 1805 1979 
1805 1839 1955 3251 1983 3310 1958 2833 1941 
3162 2837 3251 1958 3310 3171 3310 1715 370 
369 3171 120 377 1575 3166 2839 3251 2838 
1910 1923 378 3171 2839 1940 3166 3171 2415 
1408 2452 2416 2342 1410 1460 1461 3241 2534 
2568 2450 2451 1352 2414 2450 1032 2616 1074 
2585 2450 2533 2449 2534 3146 2535 2570 2534 
2504 2447 2412 2471 3164 3051 2617 3052 3002 
2531 3252 3206 2495 454 1760 3297 3154 2440 
3297 2995 3206 2365 3195 2399 2402 350 1750 
2440 2402 2400 57 2366 2402 57 1761 2366 
2220 1303 1364 2186 2338 858 920 3259 2372 
919 2380 2344 2338 3259 920 2344 2338 2278 
2373 2246 2278 2245 1231 2246 2338 2313 2246 
2344 2936 2410 2373 3259 3259 2380 2418 976 
2816 506 1780 1907 2829 1916 2835 1933 1520 
2302 1480 3213 2255 2254 341 2286 3213 2367 
1428 1478 3213 1430 2331 2303 2924 2270 2240 
2933 2275 1430 1432 2301 2301 3213 1480 2302 
2403 1474 1476 3285 2645 1109 1092 1093 2641 
2640 953 2609 2554 1090 1091 3299 2517 1614 
1612 2516 2545 2546 429 428 3289 1732 1733 
2487 2678 25 1692 1691 2700 590 589 621 
2700 1697 1691 1692 2679 2623 1727 2627 2700 
2678 1691 2679 2745 638 620 640 2661 2646 
3163 1078 3047 3316 2665 2637 3145 995 1044 
997 3046 2705 3145 2706 943 2769 999 3145 
2583 1005 2552 2582 3038 1734 1733 3289 2426 
2459 1731 3000 3560 3420 1653 2643 2578 892 
891 2547 2582 951 1005 950 2582 2607 1006 
951 3203 1687 465 2063 2870 2101 2123 3308 
2109 1763 498 2086 3098 2891 3159 2897 2042 
1678 1687 146 1678 1677 2042 1687 2086 1763 
465 3203 2867 3169 3151 2034 2866 2042 2063 
2033 2143 1485 1484 1437 2907 2181 2188 3202 
1572 2035 367 366 3151 1573 1572 367 1574 
2006 373 3166 3288 2034 3151 2006 368 1958 
1983 3151 1981 3306 1774 1775 3084 1975 2000 
1974 1983 1713 368 2007 3543 2010 108 80 
3310 369 370 1958 1898 1902 1881 1826 3332 
1886 544 520 1887 1886 1824 1893 2542 1494 
1532 1548 3183 3072 2683 3067 2599 1548 1494 
2542 2576 1454 1548 2541 2576 1548 1453 2599 
2576 2541 1548 2542 3049 3267 2713 3068 3016 
3170 3063 3056 3026 2640 2639 3267 3305 1738 
425 3234 3026 2550 3296 2581 2612 448 1737 
2643 2714 3267 958 2692 1933 1333 1393 1950 
1949 1971 1331 1950 1932 1950 1333 1933 1951 
1447 1391 1393 1925 1190 1932 1264 2329 457 
1668 1667 2975 2332 2405 2953 2329 2364 2365 
1667 2329 2365 456 1667 2654 2743 2623 2724 
2765 637 2767 2744 3242 1414 1464 2596 2746 
617 635 636 3078 2767 3079 3053 3053 2743 
2744 2724 3132 3071 3312 3174 3043 3030 2589 
3042 2118 2096 1317 3240 2874 2073 2055 3188 
2015 1992 1332 2016 2851 2016 1992 2015 2055 
1444 1433 2073 2001 1858 1857 1863 3258 1396 
1326 1378 3240 1378 1315 1376 3258 1378 1326 
1317 2550 1735 1734 2546 3289 430 1732 431 
3038 2549 1734 2550 2608 2639 895 828 2608 
826 751 828 2487 444 1733 3155 2581 2580 
447 2611 2667 2612 2611 2581 2581 447 1736 
2611 2578 952 2579 2607 3184 1703 1702 422 
3187 2461 2429 2959 2348 2318 1702 3184 3184 
1702 1703 2318 2348 2385 423 2384 2958 2349 
3184 2348 2318 1702 1703 340 2318 340 1703 
2286 2309 2279 2373 2278 3589 2374 716 3469 
2337 714 791 793 2444 2409 791 2337 2374 
1225 1227 1148 3053 3054 2766 2768 2716 3277 
1096 2693 2526 2563 339 2562 3037 2594 2606 
2577 2597 2588 1355 2621 3006 2503 2532 2529 
3032 2527 2589 3300 3042 3300 2589 2622 3053 
2623 3300 3042 3042 3032 3300 3044 3264 3266 
2311 3290 3202 3226 2223 2222 3202 2944 3225 
3226 2687 1210 1212 2708 2686 2707 2663 2731 
2771 2770 885 2750 2771 885 815 2750 2771 
2710 2770 2750 2086 2063 140 2085 2086 465 
2063 3203 3160 2024 2022 1999 2042 2063 1687 
3203 2086 2085 1778 2108 2094 2180 3313 2117 
2109 498 2134 2108 2241 1524 2214 2218 2086 
1763 498 140 2626 499 489 3207 2624 48 
344 500 2590 59 35 1745 2590 59 1745 
461 2560 2589 1745 2590 2624 2677 48 500 
2653 356 1580 48 2624 59 35 2590 2653 
2677 356 48 2653 1580 344 48 2653 27 
356 2677 3262 2468 3283 2441 3242 2565 1414 
2596 2819 136 1722 137 2499 2529 1466 1468 
2402 1750 455 3297 3171 3166 377 1940 1952 
1831 1856 1965 1975 1869 1870 1952 2846 1954 
1977 1976 2662 809 811 732 2662 2634 809 
732 3601 252 732 251 3449 2662 1133 1131 
2662 732 811 734 2604 2635 2636 1283 2663 
1282 1212 1281 2686 2708 1212 1129 2590 1745 
35 2589 59 2624 35 344 2622 2743 2623 
2654 2699 2653 2677 27 3042 2743 2623 2622 
2622 35 2590 2624 2624 344 48 2653 2655 
36 2 504 2624 48 2677 2653 2624 500 
344 59 3245 2314 971 2381 2864 3175 2057 
2044 2045 2046 1261 2014 3523 3388 576 2754 
3190 2196 770 840 3190 2095 685 770 1858 
2026 1843 1863 3189 2131 688 2057 2463 2462 
946 3227 2521 2554 1090 1050 2924 2923 2213 
2912 3156 2443 3285 3239 2370 2334 1518 2368 
2965 2332 2331 2369 2368 1478 1476 2367 363 
1709 2138 3209 1983 2007 368 3151 1983 1714 
1715 369 2006 1573 1572 3151 3278 3220 2317 
2293 3281 2022 1530 1490 3220 2233 2263 3278 
2167 415 1593 1592 2894 2895 3294 2901 3556 
3422 1652 2611 2007 2035 1712 367 1983 1715 
1714 1986 2065 2035 1711 3314 1983 369 1715 
3310 1959 1716 3310 1984 1983 3310 1958 369 
2840 3171 3310 3162 1986 1715 1714 1723 1988 
1680 142 1679 1988 1989 1680 1679 3247 2012 
1989 1988 1988 2012 1679 2011 2049 3247 1384 
2070 1900 211 679 1927 1901 679 1927 1900 
1901 1916 1268 1903 1909 471 1684 1911 2834 
1949 1950 1971 1949 1950 1333 1932 1912 210 
678 1925 2413 2505 2534 2504 3015 3146 3153 
3241 2690 1112 1095 2693 3201 2420 2425 2455 
2497 352 353 3223 3254 1752 348 2330 3416 
310 1816 2078 2425 1558 334 1559 2275 1375 
1430 2303 2239 359 3232 3176 2239 71 1756 
1755 2213 1755 459 2240 2964 3213 2334 2368 
3109 2965 2975 2933 3233 2578 2607 2582 3177 
3213 2302 2964 1953 1869 1868 1871 2848 2846 
1977 2858 2819 2009 1985 3210 3162 1719 1726 
1985 1959 1718 1716 1725 2839 1940 1922 2831 
1959 1716 371 3310 2811 182 754 183 2811 
606 567 2812 3231 829 831 754 3439 2805 
756 2811 2792 2811 831 756 2811 2792 3231 
2812 3483 2804 752 181 3483 2804 564 3231 
3076 3080 2782 2798 3242 1416 1418 1466 3127 
3126 3142 3128 3079 3082 2796 2780 2627 403 
1690 404 2627 1690 403 2593 3238 1255 1180 
1256 2121 2122 1382 2144 2178 1381 1380 2145 
2179 2215 1380 2178 2178 1380 1381 1436 2178 
1436 1435 1380 2178 1380 1435 2215 3273 2241 
1482 1483 2239 2213 1756 3176 2896 3159 3197 
2897 2934 3273 2273 2242 2914 3273 2215 2178 
2239 494 359 3176 2903 2174 2164 3197 2896 
2903 3197 3182 3197 1758 463 3182 3237 200 
2173 2211 496 2174 1758 3197 2608 895 826 
828 3026 2639 2640 2608 3438 2755 438 2717 
3155 2486 3000 2487 2608 893 895 2609 2608 
2640 895 2639 2608 2609 895 2640 3155 2608 
751 2549 3289 1612 1610 2484 3174 2668 2692 
3277 3007 2482 2999 3201 3167 1610 1608 397 
2989 2456 3167 2421 3289 1610 431 3167 3000 
2487 3289 3038 2243 1377 1379 2242 2242 1434 
1377 1379 2242 2215 1434 1379 2913 3273 2241 
2934 2275 1377 1375 2243 2275 2243 1375 2276 
2275 2276 1375 2303 2275 2303 1430 2301 2303 
1375 1430 1373 2925 2934 3273 2914 2592 2561 
16 37 2626 1661 42 15 3029 2591 2590 
2560 3031 3059 2741 2740 3526 3373 67 3207 
3060 2674 2675 2651 3031 3059 2650 3029 2655 
36 500 2624 2591 2561 37 461 2591 37 
2561 2592 2598 1450 1494 2599 2595 1451 1495 
2598 2597 1412 2629 2621 2596 1452 1414 1464 
3242 1506 1464 1466 2565 1357 1414 1412 2488 
2973 3152 2389 2353 396 69 2350 2982 2384 
2385 2348 3184 1704 420 2256 2983 2518 2547 
2551 2275 1432 2273 2301 2964 2302 2306 3213 
2965 2368 2367 3213 2939 2287 2320 2948 3603 
3443 1162 267 3273 1483 1435 1436 2920 2229 
2199 3218 2929 2257 2256 2938 3137 3232 2919 
2912 3218 139 343 2199 2228 342 1565 1564 
2177 1485 1484 2143 3088 3089 3251 2839 2893 
2138 3209 2137 3173 2393 2358 2392 2984 2394 
2395 2433 2910 2201 3311 2232 2892 3217 2135 
2136 2177 1525 1485 3212 2177 2143 1484 2176 
2892 2136 2137 3209 2754 838 765 764 50 
2717 1656 438 3382 2822 565 2649 2670 2644 
2712 3295 3061 2733 2712 3295 2777 2739 439 
20 2777 1764 49 502 2754 838 2753 2733 
2719 482 1765 1764 2107 1823 1821 127 1823 
2081 2821 2107 2107 123 528 127 3613 3380 
1179 2119 3401 705 703 314 3148 1423 2186 
2151 2127 1309 1370 2126 2151 3148 1423 2104 
2219 2189 2308 786 2127 2281 2314 2282 2573 
2572 2685 2603 2604 2707 2636 2635 2685 879 
877 939 2659 875 877 807 2769 2730 945 
2770 2637 2665 1402 3316 2685 811 879 2707 
3070 3035 3046 3047 3168 2416 2453 2417 2379 
1459 1500 1501 3015 2506 3307 3181 2452 1407 
1458 1408 2452 1458 1457 2453 1854 1934 1952 
1869 1915 1929 1928 1913 1915 1791 318 1789 
1928 1827 1829 1791 1967 1966 1267 1945 3304 
1918 1905 2827 1931 1267 1191 1966 2175 2142 
3280 3240 2884 3240 2106 3188 3240 1315 1247 
2128 2884 3280 2106 3240 2864 2195 3190 2160 
3190 2118 2068 2048 2864 3190 2096 2068 2001 
2000 3175 2026 3122 3127 3121 3125 3239 1501 
2343 2379 3239 1501 1537 2343 3058 2671 2694 
3163 3058 2647 3163 2646 2511 2512 1349 2539 
2480 1457 1498 2454 2646 3163 1078 2647 3287 
3241 2568 2997 2346 1097 1062 2316 2346 1063 
1062 1097 2346 1021 1062 1063 3303 1513 1473 
1471 2988 2434 2418 2408 3255 1077 1075 1035 
2980 2969 2419 2977 3281 1529 1530 3286 3064 
2716 3277 3312 1599 1589 3215 2089 3198 3209 
2084 2876 2833 1910 1923 2830 3230 1513 2124 
3303 1037 2359 1079 3284 3288 2838 3166 3251 
2853 2021 3160 2872 1999 1998 1448 1973 2884 
3240 2196 3280 2831 1922 1921 1940 2118 3190 
2068 2096 2864 2048 3190 2068 2048 3189 3190 
2095 1801 2044 1837 1835 3189 688 685 305 
2517 2546 429 2545 2606 1619 426 1618 3049 
3026 2612 2667 3054 3234 3305 2628 2581 3296 
1735 2550 3017 3025 3037 3296 2758 2760 959 
2775 2798 2772 2773 2756 2774 961 904 902 
3431 2772 570 187 2772 2753 764 839 3054 
3080 2680 2766 2594 1619 403 2628 3234 1621 
1620 2656 3053 2768 2767 3079 2300 851 914 
915 3245 915 2314 2300 2249 3291 1016 2283 
2968 2381 2314 3245 2285 970 914 969 3291 
1015 1019 3309 2106 3280 2253 2128 2272 849 
780 2253 3049 2713 2691 2712 3234 2628 2656 
1620 3076 2774 2775 2757 3295 1739 450 1738 
3061 3069 3295 3234 2717 1655 2733 3295 3234 
1738 1739 3295 2670 450 449 1738 2733 1655 
2670 3295 2718 482 44 3295 2718 2719 482 
3295 2518 949 889 890 2547 823 822 746 
3375 3268 741 290 2489 889 888 2460 2519 
948 1002 2490 2613 2582 1005 2583 2109 2134 
497 3197 2951 2323 2324 2291 3187 2390 2355 
3193 2325 2292 2942 2951 2230 418 2258 2231 
3173 2431 2432 2392 2889 2881 2100 2071 2291 
3191 2261 2203 3010 3011 2491 2521 2961 2360 
2327 2362 2974 2362 2396 2397 2918 3218 2920 
2900 1567 2165 139 3218 2474 2507 1028 2493 
1460 2343 1502 1501 2378 1409 1460 1410 3265 
2511 2478 2510 2378 1410 1353 1409 3256 1469 
1509 2152 3110 2991 3108 2949 2109 497 1762 
3197 2521 1089 1090 2555 2349 2348 423 422 
2349 1604 2385 2386 3018 2553 2583 3027 2319 
2350 1602 2349 2319 1602 422 2349 2352 69 
384 2321 3563 3429 1177 3308 2752 2732 2751 
1202 2752 1123 2751 2788 2803 825 2804 750 
2732 1273 1201 2711 2749 1201 2711 2732 825 
2803 2804 3194 2825 2732 1208 2751 2788 2732 
2787 2751 2600 871 873 803 3506 82 531 
514 2569 871 869 931 3265 3287 2997 3241 
2601 931 929 985 2601 985 929 2570 2601 
929 931 2568 2601 2570 929 2568 3230 1471 
1469 1511 3230 1511 1469 2152 2899 3230 2906 
3149 2974 2397 2434 2395 2335 2905 2890 2150 
3303 1513 1471 3230 3138 3120 3202 3085 1977 
1876 1859 1860 1954 1876 1977 1976 3205 3309 
3291 2947 3587 252 1135 253 2602 730 807 
2634 2602 730 728 807 3419 730 728 2602 
3587 2602 730 3419 2602 1136 1135 1215 2359 
1037 1079 1077 2295 992 2325 2326 2295 990 
936 992 2294 1033 3269 2293 3255 3284 1037 
1035 2266 936 2265 2295 2266 936 990 934 
2266 2265 934 2235 3257 1854 1829 1853 2852 
1967 1946 1945 1967 1334 1265 1992 1966 1948 
1265 1191 1966 1265 1267 1191 1992 1334 1332 
2016 2047 2015 1330 1332 1969 1832 1795 1965 
1991 1948 1189 1265 2618 16 40 2592 2586 
2648 2561 2618 2618 1271 1199 1141 3534 2649 
1199 2618 2598 2629 1451 2630 3007 2528 2543 
2515 3064 3057 3277 2669 2716 1057 1096 3277 
3300 337 1552 13 2595 2596 1464 1452 3277 
1009 1008 2641 2669 1095 1055 1056 2397 1102 
1067 1101 3260 1069 1068 1103 2915 2906 2988 
2977 3177 2302 3213 2301 3226 2223 1541 3225 
2445 923 922 978 2411 2471 793 2444 3260 
1102 1068 2435 2341 3264 3307 3266 2667 899 
2691 3267 3033 3305 2628 3054 3054 3234 2656 
2680 2680 2656 1621 3234 3268 452 1728 62 
62 1644 3268 452 3545 288 739 3377 2352 
1740 1728 452 2387 1730 1729 51 3268 62 
1728 2353 2489 947 948 2490 2352 2353 1728 
69 3263 1642 1643 2354 1463 2248 3266 1415 
3241 2978 2534 2450 3051 3287 2616 2646 2342 
1461 1460 3222 2493 1104 1069 2465 2506 2472 
979 925 2657 1401 1343 2621 2620 2650 1344 
2651 3014 2497 2527 3223 2651 1344 1280 2650 
3050 2607 2638 2613 3074 2741 2762 2746 2794 
627 3271 2778 1036 2616 1034 3287 2066 1589 
2089 3215 2354 3193 2390 3263 2138 415 416 
2166 2138 2166 416 3311 2244 1244 2277 2236 
2237 2236 199 2211 2237 1671 2238 2212 2237 
2236 2267 665 2212 460 1671 2213 2237 1671 
198 2238 2919 3232 2198 3176 2237 665 199 
2236 2237 198 199 665 3573 3461 663 2267 
3458 662 663 231 2894 2138 3209 2893 2876 
2084 2062 3217 3303 1515 1473 1513 3217 364 
147 1568 3172 2121 2120 2143 2529 1466 1506 
3242 2567 3242 2532 1506 2440 1557 2458 2427 
3021 3298 3022 3157 3242 1416 1414 2565 2567 
1532 1495 1506 3165 3242 2532 2567 3242 1466 
1418 2499 2500 2503 1510 2470 3505 3496 573 
2676 2859 2850 2847 3249 3306 1775 466 1776 
2867 2877 3169 3198 2162 2163 852 2133 2132 
781 779 699 2162 852 850 781 2162 779 
781 850 2865 2060 2061 2030 2875 2161 3302 
2132 2029 2028 1847 3302 2923 2305 2277 2304 
3177 2273 2242 2934 2244 1314 1316 2243 3549 
228 667 227 2243 1314 1377 1375 2243 2276 
1314 1375 2275 2242 1377 2243 2719 2747 1765 
434 3544 189 765 3388 3061 3069 2733 3295 
3049 2713 2712 3061 14 1621 3234 2680 3054 
2628 2656 3234 2088 1710 414 413 2036 2008 
411 2037 2111 2110 414 2088 2036 3314 1712 
2035 3092 3097 2955 2956 2112 1591 1590 413 
2111 413 1591 2112 2088 414 1710 2110 2138 
2110 415 3294 2489 2461 947 2490 2957 3184 
2318 2348 3108 2929 2937 2949 2136 1567 2135 
3218 2492 2491 1049 2463 2288 420 2256 3184 
2519 1003 2553 2520 2387 51 396 2386 3076 
2798 2782 2800 2772 764 762 839 2773 760 
762 2789 2772 762 2789 2773 2773 760 835 
837 2554 1051 2553 2584 2492 1049 1089 1088 
3137 2912 2919 3103 2492 1088 1089 2522 2520 
1050 1003 1051 2520 1051 1003 2553 2520 1002 
1003 1050 2468 1512 1472 3285 3125 3063 3170 
3056 2811 2805 2812 567 3524 2260 1640 285 
3231 2804 564 2810 3231 566 606 605 3272 
3248 2793 3067 2804 829 827 2793 1976 1874 
1875 2002 1953 1934 1869 1952 1973 1445 2021 
1972 3251 3166 1958 3171 1975 1952 1872 1974 
2856 1992 2852 2842 2462 946 886 947 2463 
1001 946 2462 2429 888 2460 2461 3263 1643 
1642 451 2490 948 1002 947 2680 3234 3080 
3054 3053 2679 2745 2681 3053 2656 2627 2679 
3069 2680 2719 3234 2877 2088 2110 2885 2324 
880 942 940 2324 878 880 940 2291 810 
878 808 3191 382 383 1609 2668 2641 1009 
3277 3017 3048 3009 3038 3026 2546 3296 2550 
3277 1057 1009 1011 3174 2640 3267 2668 2690 
1095 1112 1111 3174 3267 2640 3026 3071 3054 
3068 3033 3025 3037 2577 3033 2668 1011 2692 
3277 2030 1851 1848 2061 2032 2820 2067 2060 
1985 1724 1726 3292 2865 2067 2116 2061 2865 
2061 2116 2081 2865 2875 2858 2030 2820 1845 
1813 1882 2865 2059 2058 2030 2060 1862 1848 
2030 2847 1981 1989 3306 2195 845 841 907 
2046 1261 1185 1259 2055 1433 1388 1396 3240 
1247 1317 1249 2046 2068 1259 2017 2194 2159 
842 2160 2194 842 841 2160 2911 2243 2276 
2244 3576 229 1167 3459 2172 667 201 668 
2141 1673 201 2173 2146 1321 1252 2123 2146 
2145 1321 2123 2897 3159 3197 2134 2903 2198 
2164 2174 3182 1674 463 3197 2953 2364 2406 
3195 2400 1666 57 2365 2597 1357 1412 1355 
3223 1555 1554 2526 2501 1361 1298 1300 1228 
2502 2530 1298 193 2439 1664 3252 2438 2439 
193 3252 2439 1664 454 1665 2731 815 883 
2750 2731 881 883 813 2731 883 881 2730 
3075 2769 2770 2730 3261 2257 2258 2929 2288 
420 1600 1598 2257 419 420 1598 2937 2229 
2254 2256 2288 1617 1600 2321 2959 2949 2350 
2321 2257 1598 1615 1596 2257 1596 419 1598 
1607 2232 2201 3191 2621 2629 1401 1412 2596 
2629 1412 1452 2597 2629 1412 2596 2620 1290 
1344 2650 2620 1344 1355 2621 2620 1355 1344 
1292 2620 1292 1344 1290 3412 240 655 239 
3131 3041 3062 3060 3315 2559 1226 2531 2518 
3152 2547 822 2551 951 950 891 3597 3441 
736 250 3270 1055 1054 2642 2578 2551 951 
2582 2456 2421 397 3167 2614 1052 1092 2584 
3346 478 20 5 2733 1114 761 2717 2754 
574 576 581 2754 581 576 2739 2754 2777 
581 2739 2777 584 581 157 3234 424 1739 
1738 3069 2719 3295 3234 2754 2777 612 581 
3523 3394 768 2755 2754 2783 612 2777 2754 
768 765 1114 612 572 2754 574 2754 2755 
1114 2717 2168 2202 1605 2167 2292 876 808 
878 3367 286 1641 287 2202 2203 141 3191 
2961 2361 2960 2974 2235 872 874 934 2895 
3294 2112 2111 3301 806 2261 2262 2550 2549 
1734 446 2549 445 1734 446 2550 2580 2549 
446 2860 3185 2879 2887 3185 3186 2207 2170 
3185 394 1658 2092 2170 790 713 792 3599 
2686 734 2662 3599 2662 1131 2686 2092 1659 
395 1658 2092 2116 1659 1658 2323 810 880 
878 2292 938 2325 2295 2292 876 878 938 
2324 2357 2325 940 2323 3191 2922 2940 2761 
2762 601 3279 2763 601 3279 2761 3081 3279 
3271 3074 3279 3235 3208 2702 2702 3208 2682 
1276 3208 2702 1277 1276 2429 2430 886 2461 
3178 2357 2356 3227 2463 946 1000 3227 2257 
420 419 2256 2490 1002 2491 2462 2938 2257 
2256 2288 3291 1016 1060 1019 3291 1062 2316 
2346 2882 3309 2873 2947 2250 965 966 1016 
2945 3204 2936 2280 3160 3281 2022 2052 3221 
967 966 910 1959 3214 1725 1984 2996 2474 
2473 2446 2651 2675 1278 2674 2740 2762 602 
2761 2740 2761 3059 2762 2740 559 561 2698 
2761 2740 3059 2675 2077 1814 1844 1815 2863 
2026 2000 3246 2130 773 772 691 3161 1846 
1847 1816 2193 909 2158 2190 2809 607 632 
2808 3439 183 567 2811 2805 184 568 567 
2805 2791 756 2792 2805 2812 2791 2792 3595 
3463 1148 2337 2042 1678 2011 2043 2861 2012 
2011 2042 2012 1679 1678 466 2012 1678 1679 
2011 2794 641 644 642 2809 2796 3076 3082 
3272 3231 2807 2806 3070 3046 3145 3047 1397 
2658 2637 1398 3075 2770 2710 2688 3248 896 
898 2793 3078 3042 3044 3032 3079 3076 3080 
2782 2775 957 959 900 3075 3145 2730 3046 
3066 2683 2682 3183 2759 1010 1012 2760 2759 
1059 1046 2737 3128 3070 3058 3065 2901 2167 
2166 2910 2910 2167 2166 2201 2258 1596 1613 
1595 2894 3294 2166 2901 2292 2324 2325 878 
2292 878 808 2291 2292 808 876 2262 2292 
2324 878 2291 2114 2171 1634 2140 3383 3301 
727 283 2234 806 804 2208 2503 1534 2470 
2481 2819 1724 1722 1985 3057 3270 2669 2690 
2690 1094 2671 3270 3270 1094 1110 1093 2408 
975 1025 2380 3098 2892 2876 2891 2408 1025 
2418 2380 2408 975 1024 1025 2380 1025 976 
975 2380 976 1025 2418 3259 921 920 976 
2309 2410 2310 2409 2582 950 1005 2552 3174 
2715 2692 3071 3289 430 1612 2517 3000 2983 
2457 2426 2456 1699 398 397 2484 1612 1610 
398 2456 397 398 3167 3040 3233 2583 3027 
2329 456 2365 3254 3002 2530 2566 2531 3157 
3298 3283 2499 3039 3233 2989 2990 3228 1236 
1306 2406 1560 2322 347 1561 2388 3229 1559 
1560 3206 2531 2502 2530 3563 3428 671 2041 
2101 2041 1177 3308 3428 671 672 223 2043 
1677 1678 205 2109 3203 1763 2086 2101 2041 
3308 2043 3203 465 1677 145 2441 1422 3283 
2442 3201 2455 2482 2999 2645 2617 1109 2647 
3165 2567 2598 2595 2999 2456 2455 2483 3027 
2554 2553 2584 2668 1009 1011 3277 3315 657 
238 656 3029 3074 3043 3031 2853 3160 2021 
1973 2872 2051 2021 3281 2006 3151 1572 2034 
1982 1773 373 1957 1983 368 1713 1714 2840 
3251 3310 3171 3135 3088 3091 3092 3278 982 
1031 2284 3215 1589 1588 2037 3200 2252 2225 
3243 3066 2682 2703 2702 2605 1453 1449 2599 
3066 3208 2682 2702 2631 1449 1450 2599 2631 
1450 1449 1398 2637 2631 1398 2658 1944 1682 
1926 1942 1964 1963 1680 1681 1981 467 468 
1964 3306 2034 375 2064 2049 1324 1384 3247 
1956 1773 469 468 1956 468 469 1943 1956 
1773 468 1774 1982 1774 1956 1981 2853 1997 
2021 3249 2510 1287 1350 2478 2477 1351 1287 
2478 2477 1287 1288 1218 2477 2509 1287 1218 
2452 2416 3241 2415 3168 2416 2379 3241 3265 
2453 2452 2479 2140 2234 2209 2208 2206 2169 
3293 800 2233 932 870 3293 2234 804 874 
2209 2355 880 2356 2323 2940 3211 3191 2922 
2356 882 944 942 2230 2229 1706 2199 3156 
2417 3239 3168 3239 1536 1500 2417 2443 3285 
1512 2468 2443 1535 1499 2454 2513 1456 1497 
2481 2454 2453 1499 2417 2934 3273 2274 2273 
2218 1507 1543 2188 3218 343 139 1566 2218 
1543 1524 2181 2918 2164 2198 3218 2859 3306 
2062 3198 3093 3094 3198 2859 2122 2123 1321 
2145 2859 2033 2012 2866 2121 1383 1382 2122 
3212 2124 1527 2100 2856 2852 1992 1993 2388 
1559 335 1560 136 2819 1722 2818 2948 2957 
2318 2320 2707 879 881 811 2707 2731 813 
881 2706 2707 879 881 2635 2634 1133 1214 
2635 1214 1213 1283 2603 807 2634 2602 2635 
1133 1213 1214 2604 2635 2685 2707 2574 1348 
1404 2540 3423 1948 1189 1969 1993 1394 1998 
1973 3258 1388 2055 2047 1991 1966 1965 1948 
1991 2851 1990 1965 1969 1189 1263 1991 1969 
1263 1189 1187 1969 1991 2014 1990 1969 1263 
2014 1991 1969 2014 1263 1187 1919 1918 1868 
1935 1919 1904 1878 1918 2816 107 505 2817 
1924 1579 128 1923 2090 391 3236 2091 1908 
505 121 1767 3251 1983 1958 3151 1898 1880 
1828 1904 1894 1686 473 102 2827 2826 1895 
1898 2729 553 554 173 2689 2710 1272 1339 
2704 2689 1274 2683 3474 2729 1117 173 2779 
599 557 556 2764 599 557 2779 2704 1275 
1204 2703 2080 312 701 699 2059 2058 1820 
2080 3387 1822 1879 313 2059 1851 1820 2058 
2059 2133 701 2081 2067 2865 2032 2060 3205 
2249 2251 2283 2058 1851 1820 1849 2079 1818 
1849 1820 3219 2381 1022 2382 2224 966 3221 
2249 3219 1063 1064 1022 1021 3291 1020 3245 
1983 2008 1713 2007 2840 3162 3310 1959 2045 
2014 1261 1263 3150 2947 2873 3205 2106 2253 
2129 2128 3240 3258 2096 1317 3240 1247 1315 
1317 1396 3188 2055 1433 2874 2073 3188 2882 
2103 2125 1374 3188 2047 1328 1388 1330 2856 
2862 1998 2025 2045 2015 1330 2047 3388 765 
768 189 2291 2324 878 2323 2355 882 812 
814 2922 2201 3191 2202 2940 3211 2921 3261 
2323 2324 880 2356 2845 1954 1976 1953 2845 
1953 1976 1975 3084 2855 2000 2863 3084 2842 
1974 2851 2130 2077 2056 2026 2130 843 772 
773 2130 2158 843 773 2857 2027 2028 3161 
3161 695 775 2076 2027 2156 3161 2857 2863 
3246 2158 2130 3076 2782 2796 2800 3073 2738 
2737 2716 3250 2797 631 2807 3066 2727 2779 
2764 3066 3081 3279 2778 3248 2760 1010 2759 
2800 608 633 2796 3082 2808 2791 2809 2024 
2023 1492 1493 2024 1492 1519 1493 1999 2022 
1531 2024 2054 2073 1429 1479 2926 2249 2250 
2224 3215 1597 390 1588 2293 986 984 2263 
2037 410 411 1588 3220 2264 2263 3293 2066 
411 1589 2037 2037 411 410 2008 3200 2869 
3236 3244 2190 910 846 2191 2224 910 909 
2190 2193 909 843 2158 2178 2143 1437 2144 
2866 2033 2012 2042 3203 2043 1677 2042 2121 
1383 1438 1382 3159 2876 2085 2891 2898 3203 
3313 3159 2143 1437 2121 1438 2898 2145 2123 
2122 2144 1382 2145 2122 3308 205 1677 2043 
2870 2042 2043 3203 2052 1530 1549 3286 2854 
2023 1998 2862 3245 1020 3309 3291 2854 1973 
3160 2853 2980 3245 2381 2968 3291 1019 1015 
1016 2872 3286 3281 3160 3205 2873 3309 2947 
3188 1396 2055 3258 3619 32 1134 7 3289 
2517 1612 2484 2487 1732 1733 444 2486 1649 
444 3155 2486 444 1732 2487 3577 295 749 
294 2486 443 1732 444 3180 2748 588 2747 
2824 46 43 2701 2766 622 639 2781 2824 
591 622 2701 2824 593 591 43 2679 1691 
1689 66 3083 484 330 26 3298 3283 1420 
1363 2595 2596 1452 2629 2499 3298 3021 3157 
1941 3171 1578 1923 3163 991 1040 2684 3250 
630 625 2795 3065 2693 2695 2690 2987 3195 
3157 2962 3195 2399 2364 2398 2329 2364 1667 
2328 2329 1667 1668 2328 2974 2395 2362 2397 
2986 2974 2434 2988 2111 414 2110 3294 2906 
2152 3230 3256 2986 2985 2397 2974 3214 1725 
1726 1718 1954 1859 1876 1871 3162 1960 1719 
1985 2009 3292 1724 1985 3181 2493 2465 2494 
2039 3292 1584 406 2837 1955 1985 3210 3210 
1840 1839 1979 1979 1840 1839 1807 2758 959 
961 2775 2756 837 906 839 3064 2693 2669 
3277 2758 1014 961 959 2758 2757 1115 2735 
2757 2758 1115 961 3053 2768 2766 2745 2772 
839 762 837 2734 960 903 905 2734 903 
960 2713 1328 2047 1388 3258 2048 1803 1808 
2095 3482 2095 685 3189 3190 2196 2096 2118 
2864 3189 2160 3190 2195 3190 840 2196 3084 
2856 2842 2851 3485 306 1812 307 2056 2057 
689 2131 2130 2077 773 691 2130 772 843 
2159 2056 691 307 2077 2131 689 771 688 
2131 2057 689 688 3189 1810 305 1808 3120 
2907 3204 3202 2247 2246 1299 1362 2247 2246 
1362 2221 2312 2343 1538 1502 2319 2349 422 
3184 3287 3146 3241 3164 2474 1027 1028 978 
2465 1103 1104 1069 2494 1071 1105 2524 2966 
3222 2343 2312 2474 1028 2507 2473 2772 837 
762 2773 2772 2756 837 2773 2774 837 904 
2756 2800 609 2789 2798 2757 961 1115 962 
2715 1057 1058 2716 2714 2713 958 3267 2758 
1115 961 1014 2587 1290 1222 1292 2587 1224 
1222 1145 2619 1290 1222 2587 2619 2650 1290 
2620 2587 1292 1222 1224 2587 2620 1290 1292 
1894 473 1686 1895 1895 121 473 99 2827 
1898 1895 1894 1895 1908 121 99 3304 3257 
1934 1952 1895 1685 1896 1900 1899 99 1767 
1908 3552 1927 678 1912 2828 2831 1922 1909 
2831 1921 1922 1909 2827 1918 1904 1919 2848 
2840 1959 3162 3253 2587 1145 1224 2586 41 
2558 654 2558 1143 240 1145 41 2586 2558 
3274 2586 3274 2561 2648 2587 1294 1292 1224 
3013 3014 2495 2525 3013 2588 2587 2559 2559 
1224 1294 2587 3315 1664 192 1663 2559 2587 
1294 2588 3560 2643 757 3420 2754 2799 612 
2783 2748 487 49 485 584 618 2748 2783 
3069 2799 2753 2754 2754 2777 2718 2783 3208 
2658 2682 1341 2704 1203 1274 2711 3077 2759 
3248 2769 3077 2759 2760 3248 1341 2658 1399 
3208 3272 2810 2793 3231 3183 2682 2658 2683 
3075 2688 2710 2689 2391 882 944 2356 3187 
3193 2289 2321 2391 2390 884 2355 2258 2232 
1611 3211 3187 2461 2430 2429 3261 2929 2258 
2921 3181 2474 2473 2996 2604 2707 3046 2636 
2685 879 811 809 2685 809 807 877 2660 
991 937 935 2685 809 877 879 3036 2599 
2631 3055 2441 1422 1472 3283 2392 942 2357 
3227 2971 3001 2959 2973 2896 2897 3197 2903 
2329 457 456 3254 1581 1564 2255 3232 2973 
2353 2350 2387 2521 2555 2522 1089 2462 2463 
3010 2991 3163 2660 991 2684 3285 1512 1472 
1514 2583 1004 1005 1052 3159 2108 2086 2109 
2464 1048 1088 1087 2393 2358 996 1043 2392 
2357 942 996 2940 3178 2921 2922 2392 2432 
1045 1047 2392 996 1045 2393 2201 1594 1593 
416 3294 1603 1592 2167 2856 2016 1998 1993 
2649 55 64 652 3536 207 55 18 2649 
1134 1138 1132 3510 3338 565 177 3619 3518 
1134 3338 3379 3189 1810 305 2195 2160 841 
3190 2864 2057 2131 3189 2044 2048 1837 3189 
2044 3189 1837 1810 2864 3189 2131 2160 2975 
2369 2332 2965 2368 2334 1520 3213 2370 1518 
1538 1537 3202 2241 2214 2218 3112 3119 3199 
3153 3299 1107 1090 1091 2944 3290 2306 3225 
3222 1461 1462 2311 2029 1847 1849 3302 2875 
2858 2004 2846 1959 1725 1716 1984 3292 1585 
1584 407 3210 1860 1839 1840 1983 3251 3310 
2849 2860 2038 3244 3236 2849 1959 1984 3214 
3064 3057 2690 3065 3038 2609 2579 3155 3270 
1110 1094 2671 3050 3270 2614 2613 2577 401 
1618 1616 3026 2581 3296 2612 3048 2640 2641 
2609 2581 1736 3296 2612 2577 1618 2606 3296 
3049 2712 2644 3061 3049 2612 2691 2667 2668 
956 3267 2692 3026 2667 2581 2612 3017 2546 
3296 3026 3026 2667 2580 2581 2667 2691 899 
832 2811 831 754 3231 3231 606 566 2811 
3231 752 829 754 3231 566 605 564 831 
2811 754 756 3231 564 605 2810 3260 1103 
1086 2465 3260 2465 1086 2432 3260 1068 1102 
1103 2435 2448 1068 3260 2397 2396 1102 1101 
3260 2396 1102 2397 2435 1068 1067 1102 2493 
2448 1069 2474 2493 2465 1069 3260 2474 978 
1028 2473 2248 1465 1463 3226 2857 3302 2157 
3161 3210 1840 1861 1860 2004 1873 1866 2003 
2004 1866 1873 1867 2837 1977 1955 3210 1955 
1859 1839 1860 3210 1839 1860 1955 1955 1859 
1838 1839 2172 202 201 2141 2217 2243 1316 
2216 2217 2216 1316 1318 2217 2180 2216 1318 
2458 1557 2467 2498 2458 2482 332 2498 2458 
332 1557 2498 2458 1557 332 333 2458 333 
332 2482 2458 1558 1557 333 2458 334 1558 
333 2420 334 335 2425 2458 1557 1558 2427 
2989 3233 2982 2990 3124 3142 3126 3129 3255 
1035 1075 3269 3278 2317 1031 2293 2206 2091 
3215 2169 3096 2931 3220 2885 3220 2206 3293 
2233 2886 2930 2895 2931 2931 2265 2235 2930 
3220 2263 2293 3278 2036 3314 412 1712 3058 
2647 2671 3163 2646 1078 1109 2647 2646 2647 
1109 2617 2646 1036 1076 1078 2646 1076 1109 
1078 2646 1109 1076 2617 2038 3185 1585 1586 
2879 3236 2205 3186 2849 3244 1986 3196 3236 
1587 1588 391 3185 392 1586 3236 2091 3215 
390 3236 3236 1588 2037 3215 2869 2206 3278 
2204 2091 3236 390 391 2206 3236 3215 2091 
2230 2257 418 419 2202 3191 1607 2201 2929 
2229 2256 2230 2230 2200 1717 2231 2230 2199 
1717 2200 1991 1948 1265 1966 1917 1829 1853 
3257 2831 1940 1921 1939 1941 1578 1579 1923 
2833 1941 3171 3162 1941 1960 95 115 1960 
1941 95 1961 2836 1952 1934 1953 1936 1859 
1855 1836 2833 1923 1941 1924 2816 1894 1907 
1906 1899 1685 472 99 1899 1895 1685 99 
1895 1686 1685 99 1895 1685 1686 124 2860 
2858 3292 2887 2038 3292 3214 407 2887 2858 
3292 2039 3185 394 1585 393 1959 3214 1718 
1725 3200 3244 3236 2860 3186 392 1630 1629 
3090 2927 3200 2941 2090 1631 391 2091 3236 
2206 3215 2869 2096 2864 2195 3190 2069 1179 
1251 1181 2864 2057 3189 2044 2048 1803 1837 
1808 2503 1534 1510 2470 2503 2529 1508 2532 
2500 2529 1468 1508 2503 1508 1510 1534 2503 
1533 1508 1534 2503 1508 1533 2532 2514 1533 
2532 2503 2514 1534 1533 2503 3040 2583 2584 
3027 3164 2557 2585 3153 2849 2840 3310 1959 
2249 1016 966 1017 3306 2033 2062 1776 3307 
2446 2445 2945 2851 2014 1990 2855 2871 3091 
2916 3084 1976 1875 1876 1977 2855 2864 3258 
2068 3086 3073 2737 2716 3061 3234 3295 2644 
2594 2593 402 2564 2577 402 2564 2594 3174 
3064 3277 3312 2594 402 1619 1618 2594 1618 
1619 2606 2806 605 2810 3231 3272 2806 2810 
3231 3133 3079 3082 3282 3439 2811 567 2805 
2811 756 183 754 3272 2806 2807 3250 3557 
2571 728 3477 2834 1944 1996 2841 1982 373 
3166 1957 3251 2840 3310 2849 2867 3196 3151 
2007 3196 3251 3151 1983 2884 3188 3258 3240 
847 2253 912 3280 3240 1315 2128 2106 3258 
2055 1388 1396 912 2253 2285 3280 2195 845 
3280 2196 2195 840 841 845 2068 2096 1319 
2118 2874 2926 3158 2871 3553 313 1879 314 
3553 313 703 3387 3553 3387 1879 313 3069 
2783 2799 2754 2754 2733 2717 1114 3590 257 
1140 3468 2783 618 612 584 2783 618 649 
612 2783 649 618 2781 2783 612 649 2799 
2783 649 2781 2799 2782 633 645 2796 2782 
646 633 634 2782 646 645 633 3305 1619 
426 2606 2701 2681 1622 2680 2824 593 623 
622 2766 2781 639 2768 2584 1091 1051 1052 
2584 1052 1051 2553 2966 2964 2370 2976 2615 
2584 1091 3299 3028 2555 2554 3299 3011 2555 
2521 3028 2584 1052 1092 1091 2615 1092 1091 
2584 2291 810 808 731 2202 141 1607 3191 
2922 2291 2203 3191 2291 2260 731 2261 2291 
810 2260 2323 3191 3224 2323 2260 2291 2262 
2261 808 2291 2203 2261 2262 2232 1609 1607 
1594 812 2260 3224 733 810 812 2260 2323 
812 810 2260 733 3057 3270 2638 2642 3050 
2638 3270 2613 3050 3233 2614 3040 2455 2482 
1698 333 2456 2483 1698 2455 3018 3233 2552 
2983 2999 2420 2455 2456 2420 335 334 1699 
2690 2669 1055 3270 3048 3039 3009 3038 3270 
1054 2638 2642 3050 2614 3270 2645 836 2670 
761 759 3234 3295 482 2719 3069 3295 2719 
2718 2670 836 761 2733 3578 300 1655 301 
3400 1655 1654 2670 3198 3306 2064 2034 2881 
2100 2071 3281 2071 1488 1441 1489 2050 2049 
1385 2070 2050 1440 1441 2071 2019 1442 2021 
2051 2300 853 851 915 2300 2314 853 915 
2146 2123 1252 2093 3159 3203 2063 2042 2117 
202 1675 203 2898 3313 2180 2896 2896 3313 
2141 3182 2898 3203 3308 2094 3079 3054 2768 
3080 3012 2494 2523 3181 2342 1411 1461 2311 
3241 2415 2416 2379 3232 1581 359 71 2379 
1460 1459 1501 1413 3290 2311 3266 3146 2978 
2535 2534 2415 1352 1409 2414 2585 2557 1074 
1072 3239 1500 2416 2417 3241 2414 2378 2978 
3265 2511 2538 3016 3299 2557 1107 1074 2415 
2452 1408 2451 3012 2524 2557 3153 2595 2629 
1451 2598 3282 2758 2775 2760 3037 3049 3296 
3305 3007 2515 2543 3025 3564 294 1648 3404 
3061 2753 2712 2733 2977 2969 2371 2905 2969 
2382 2407 2371 2905 2151 2104 3148 2371 2345 
917 2335 2969 2335 2315 2345 3150 2947 3286 
2054 2905 2184 2186 3148 3152 821 745 822 
2518 2547 890 822 3152 822 745 746 2518 
890 2547 2551 2518 890 889 821 2547 2459 
823 746 3152 822 746 2547 3187 2352 2321 
2959 2426 3000 1731 2457 2878 2885 3314 2868 
2036 412 3314 2066 2931 2942 2930 2901 2087 
143 1710 365 2885 2088 2110 2111 2878 3314 
2066 2036 2706 879 2707 2685 2574 1347 3316 
2575 2512 1406 1349 1405 3145 3047 3073 3070 
2511 1286 1350 2510 2688 2664 2730 2731 3070 
3035 3036 3024 2512 2540 2513 1405 2136 1568 
362 363 3010 3001 2490 2462 3095 2877 3113 
3096 2574 1404 1348 1347 3070 3035 3170 3063 
2573 2603 1215 2572 2056 307 1812 1814 2056 
2077 307 1814 2056 1814 1812 1843 2026 1814 
1844 2077 2026 2056 1814 2077 2026 2056 1843 
1814 2026 1843 1844 1814 2026 1844 1863 2000 
3225 1541 1522 1523 3281 2051 2021 1442 2986 
2435 2397 2985 3217 147 364 2108 3147 2952 
2961 3284 2168 387 386 3301 3172 2176 2143 
2177 3149 2124 2147 3212 2659 2706 939 2684 
2659 875 937 877 2706 2604 2685 2707 2684 
937 993 939 2684 939 993 2705 3023 2659 
2706 2685 2706 2705 995 939 2684 991 993 
937 2684 1040 993 991 2684 993 1040 2705 
2288 420 421 1600 2920 2929 2229 2937 2937 
2254 2286 3184 2519 1002 1003 2520 3233 2582 
2552 2551 2167 1593 1605 1592 2168 386 1603 
1605 3294 1603 1591 1592 2114 388 389 2113 
2114 1634 388 2140 3301 2261 806 729 2168 
1603 386 387 2140 2208 3301 2234 3294 1591 
1603 2139 2412 1223 1221 1291 2412 2413 2505 
2376 2412 1223 1144 1221 2412 2376 1223 1291 
2450 1219 1289 2449 2450 2534 2449 2413 2450 
2449 2476 1219 3278 926 982 3243 2868 3314 
2035 2065 2978 2413 2534 2450 2966 3199 2379 
3222 3307 2376 2505 2978 2474 1028 1027 1069 
2375 2444 3307 2472 2978 2377 2414 2378 2504 
867 927 2534 3056 3287 2633 3265 3015 3307 
2505 2978 2930 2203 3301 2168 3301 727 806 
2208 2208 725 282 727 3465 2208 725 282 
2930 2140 3301 2234 2140 2208 2209 2171 3383 
3301 1635 2208 2208 282 1634 1635 2415 1459 
1409 1408 2416 1458 1459 1408 2451 2477 2478 
1351 2451 2452 1408 1351 2451 1352 1288 1351 
2415 1409 1352 1408 2569 2476 2997 2568 2635 
2663 1213 2662 2635 2707 2663 2662 2635 2636 
2663 2707 2635 1283 1282 2636 2635 2636 1282 
2663 2635 1213 1282 1283 2635 1282 1213 2663 
2559 1294 1224 1226 2525 2527 1748 1747 2587 
3253 1145 2558 3223 2562 1554 2527 2244 1316 
1314 1246 2244 2211 2210 2236 2923 2277 2211 
2911 2210 200 201 667 2902 3182 3237 2903 
202 669 2172 668 2195 845 963 3280 2769 
2770 1113 3248 2871 2926 3158 2916 2106 2884 
2285 3280 3023 2706 2604 2685 3174 2692 3068 
3071 2694 2695 3070 2720 2540 3035 3024 2575 
3023 2660 2632 3016 2834 1926 1921 2829 2841 
1943 2847 2838 3247 2072 2011 3238 1982 3306 
1774 1981 1987 1256 2020 3238 3170 3265 2512 
2998 2915 3256 2221 2967 2409 2310 2339 2445 
2493 1069 1104 1070 2474 2473 2446 978 3307 
2471 2505 2376 3138 3202 2913 3085 2446 2410 
922 2445 2660 989 1038 991 2660 991 935 
989 2633 933 987 989 2633 987 933 2601 
3078 3079 3044 3053 3053 2745 2766 2681 3131 
3078 3060 3062 3073 2759 2737 2738 3053 2623 
2724 2679 494 2239 359 71 3137 3177 3103 
3139 2211 200 2173 2210 2236 666 199 200 
3576 228 666 3460 2210 2172 201 2173 3576 
3460 1167 228 2212 3237 460 2213 2911 2277 
2211 2244 3237 1672 73 1673 3277 1056 1009 
1057 1979 136 2819 2005 3050 2645 3270 3052 
3065 2671 3270 2690 3006 2503 2481 2514 3065 
3057 2690 3270 2690 2693 1095 2669 2693 1095 
1096 1112 3282 2758 2760 2738 2567 2532 1532 
1506 3125 3058 3051 3052 2690 2693 2695 1112 
2693 1096 1095 1056 3341 111 112 536 3615 
3501 705 314 2107 112 528 537 2107 528 
112 510 3535 3341 112 2821 2107 127 510 
1823 2107 528 510 127 2107 1626 122 123 
112 537 3179 1885 3269 1073 1075 1097 2381 
972 1021 1022 3255 1097 1075 1098 3269 1075 
1073 1033 3269 1033 1073 2317 3269 1035 1075 
1033 3255 2294 1035 3269 2294 988 986 2263 
2293 1033 984 986 2952 3284 3096 2931 3255 
3284 1035 2294 3255 1098 1077 2359 3147 2360 
2359 3284 2931 3284 2264 2266 3599 2662 734 
3449 2059 1820 1822 2080 2179 2146 2145 1320 
2896 2180 2216 2902 2146 1318 1250 1320 2146 
1250 1318 2180 2607 952 1006 951 2578 951 
952 2607 2607 952 2579 2610 2607 1006 952 
1007 2607 1007 952 2610 2167 1593 415 2166 
2167 1593 1607 1605 2201 1593 1607 2167 1609 
2232 1607 3191 3193 3261 72 148 2168 1605 
1603 2167 2894 2166 2138 2910 1968 2854 1973 
1993 3281 1490 1489 1442 3281 1530 1489 1490 
3281 1489 1530 1529 2283 1061 2284 2316 3138 
3104 3101 3098 2102 2100 1528 2124 2102 2124 
1528 1546 1925 1188 1190 1264 3543 80 1806 
2010 3561 218 1188 3411 1949 1264 1333 1331 
1949 1329 1262 1331 3304 1917 1934 3257 3089 
2853 3160 2872 2835 2826 2827 3304 3210 2858 
1977 2004 2844 1951 1968 1973 2830 2832 2828 
2836 2836 2845 1952 1953 1899 1900 1685 1895 
1909 471 472 1684 1973 1447 1445 1972 3390 
733 735 3224 3524 286 733 285 3224 3191 
2323 2940 2429 2354 2390 3263 2253 847 912 
849 2884 3280 2196 2195 2253 912 2285 849 
3383 283 727 282 3188 1433 2073 2055 2882 
2103 2073 3188 2863 2916 2193 2190 3211 2258 
2921 3261 2921 3311 2200 2231 2938 2257 2289 
3261 2431 1000 998 3227 3193 72 70 148 
2797 644 631 632 2797 632 631 2808 2797 
644 641 631 2794 641 626 3250 2794 3250 
626 2778 2778 3250 626 2764 2794 626 641 
642 3031 3059 2740 2673 3315 2466 1664 1663 
3484 2558 1143 240 3412 239 1145 240 2559 
1147 1224 3253 3274 3029 2648 2619 3252 3315 
2531 3002 2310 2339 1295 1227 2409 2373 789 
2337 2309 1297 1227 2310 2220 1364 1301 2221 
2279 1299 1360 2247 2967 2247 2221 2246 2279 
2280 1297 2310 2279 1360 1297 2280 2038 1585 
408 1586 3185 1586 392 393 3185 2170 2092 
2115 393 3186 392 3185 2956 2317 2284 2941 
3193 2354 2390 3224 2354 3224 814 2390 2429 
886 888 2461 2940 2921 3211 2922 2429 886 
816 818 3211 1638 382 1639 3193 2390 2355 
3224 3193 70 1639 148 2940 3193 3224 3211 
2940 3187 3193 3261 2915 2220 2186 2905 2980 
2419 3219 3147 2915 2336 2220 2905 2905 3148 
2186 2151 2890 2105 2127 3148 2186 1423 1421 
2151 2151 1423 1421 1471 2658 1397 2637 2666 
2688 2770 2750 2730 3125 3170 3006 2998 2776 
898 2793 3248 3035 2575 2605 3036 2605 2637 
1402 3316 2136 1567 2165 362 2176 1484 1437 
2143 2176 1437 1484 1436 3156 2417 2454 2443 
2165 1567 139 362 2368 1520 1478 3213 1953 
1871 1868 1935 2828 1910 1922 2832 2045 2015 
2014 1263 2851 2015 1992 1991 1843 2057 1842 
1812 1974 1856 1832 1965 1974 1952 1856 1965 
1952 1872 1856 1870 3088 2844 2831 2832 2836 
1954 1953 1935 1967 1992 1265 1966 2854 2836 
2856 2852 2851 2045 2014 2855 2047 1330 1390 
1332 2015 1263 1330 1332 1936 1836 1855 1937 
1936 1838 1859 1836 1936 1961 1838 1836 1936 
1937 1961 1836 2818 1720 136 2010 2818 3210 
1955 1979 3597 3441 1129 2686 2833 1936 1941 
2837 3164 2617 2615 3052 3210 1841 1840 2031 
1954 1871 1876 1976 1976 1871 1876 1877 2841 
2838 2847 3249 2006 374 1572 1573 3281 1442 
1489 2051 2102 1547 3286 2075 2102 1547 1529 
3286 3281 2071 2051 1489 3035 3024 2575 3036 
3092 2872 3286 2881 2052 2022 1530 3281 2790 
758 835 760 2790 2800 608 569 2800 609 
608 569 2800 2796 633 2782 2800 2809 608 
2796 3080 2798 2756 2753 3076 2774 2756 2773 
2398 1155 1157 1234 2398 1155 1234 2436 2398 
2363 660 56 3569 3456 660 2363 2398 195 
2399 2364 3154 3022 2994 3206 2398 195 660 
659 2288 1598 1600 1617 2948 3184 2318 2957 
2940 2355 3224 3193 3187 2949 2929 2991 2431 
3227 998 2392 2842 1965 1966 3257 1915 1791 
1789 1827 1917 1853 1829 1827 1915 1931 1945 
1193 2045 1328 1330 1261 2842 1967 1992 2852 
3304 1928 1945 1929 2531 3252 1149 3315 2402 
2440 1750 3297 2437 3252 193 658 2437 193 
3252 2438 3206 2502 3252 2438 2292 2325 2942 
2295 2922 3191 2203 2202 2232 1609 1611 3211 
2394 1099 2359 2360 3303 1473 1515 2104 2915 
2372 2380 2344 3219 1064 2419 2382 2074 3286 
1517 2075 2394 2359 1099 3219 3245 1021 2346 
2381 2853 1972 2021 1997 2740 561 603 2697 
2740 602 603 561 2722 2697 2672 2740 2741 
651 603 602 2741 603 629 2723 2722 2723 
603 2741 2722 603 650 2697 3489 2696 1130 
166 3383 282 1635 283 2175 776 694 774 
2175 694 692 774 2175 694 776 2142 2175 
776 774 2196 2518 890 821 822 2983 2426 
2547 3152 2518 2983 2547 3152 2973 2488 2460 
3268 3268 452 1644 3263 3514 511 435 83 
2820 114 1582 435 3514 511 1817 3349 2082 
98 83 435 2082 86 98 1624 2082 2067 
86 1624 2082 1624 98 435 2082 2067 1624 
435 2701 331 46 1622 1623 2680 1622 434 
2747 2680 1623 434 3049 2612 3296 3305 2680 
1623 1622 2701 2725 1689 21 2681 3083 21 
1551 331 3083 331 1551 330 2725 21 1689 
329 2725 21 329 1551 2824 2681 331 2701 
2250 3205 2249 2926 2884 2196 2096 2195 3458 
1163 1161 231 3573 2267 1163 3461 2898 2123 
2145 2146 3202 2188 2223 2218 2915 2906 3256 
3204 2974 2395 2434 2988 3256 1419 1469 2187 
2969 2335 2345 2371 3219 1063 1098 1064 2388 
335 1559 2425 2388 336 1560 335 2322 1560 
347 3229 2417 2416 1458 1500 3199 2341 2342 
2311 2443 1514 1536 1535 2965 3262 3285 2976 
2966 2976 3239 3156 3036 2598 2599 3055 1499 
1457 2454 1498 3040 3028 3027 3299 2454 1535 
1498 1534 2720 2694 1042 2705 2631 1450 1399 
2630 3133 3078 3032 3131 2605 1402 1449 1453 
2575 2541 1454 2576 2605 2576 1403 1453 2637 
1397 1449 1402 2605 1402 1403 3316 3282 3079 
3082 3076 2446 922 978 2445 2446 977 922 
2410 2936 2967 2373 2279 3259 976 920 2380 
2338 2373 2967 2246 2967 2246 2344 2338 2540 
1405 1455 2513 2540 1404 1455 1405 2540 1455 
1404 2541 2574 1348 1284 1347 3170 2513 2481 
2480 3075 3046 2664 3316 2658 1399 2631 1398 
3242 1464 1416 1466 3183 2658 2631 2637 2530 
1359 3298 2565 3053 3079 3044 3054 3017 2545 
2546 2517 3272 3282 2775 2776 3234 1739 424 
14 3053 3054 2768 3079 2716 1059 1058 2736 
3049 3054 3234 3305 3132 3033 3068 3037 2538 
1216 1285 1286 2538 1285 1216 2572 3506 82 
1883 1978 3506 1978 531 82 3063 3016 2660 
3023 3505 163 573 3496 2259 1563 71 345 
2270 345 1754 346 2259 1562 345 2290 2270 
1755 1754 345 2270 1754 2271 2298 2313 856 
786 2308 2313 2308 786 2219 2371 973 917 
2345 3148 1370 2105 2127 2905 2184 2335 2336 
3148 2104 1425 1423 2433 1065 1024 2407 2905 
2336 2335 2371 2274 2302 1522 3225 3204 2248 
3266 3226 2218 1523 1542 3225 3202 2934 3225 
2944 3264 3204 3226 3202 3162 1719 372 1718 
2004 1862 1861 2032 2857 2003 1976 2846 3599 
3449 1131 2662 2865 2163 2116 2092 3371 2721 
558 170 2524 1071 1106 1072 2524 2556 1071 
1072 2524 1106 1071 1105 2524 2522 1106 1105 
2494 2524 1105 2522 3105 2928 2920 2918 3264 
2945 3266 3204 1909 472 1770 1899 1909 1771 
471 1921 3339 1196 1200 2815 3217 1568 147 
2135 2877 2087 3169 3209 2893 2137 3209 2892 
363 2138 2137 3209 2894 3209 2110 2877 2920 
2230 2229 2929 2909 3311 2200 2921 2447 718 
795 797 2411 1144 2447 2412 2504 2447 797 
2475 2475 797 720 2447 2533 869 2568 2569 
3203 145 1675 3313 3343 2755 33 160 2850 
3247 3238 2049 2121 2144 1382 1437 2904 3098 
2897 2914 2247 1362 1360 1417 2247 1417 1360 
2248 3100 2977 2988 2906 2889 2124 2100 2881 
2054 1519 1477 3286 3219 1098 1063 2346 3221 
911 968 967 3230 1511 1545 1513 2382 1023 
973 1022 2899 2151 3230 3303 2899 2104 2151 
3303 3230 1513 1545 2124 3147 2419 3219 2394 
2899 2187 2151 2915 2911 2276 2277 2244 2912 
3232 3176 2239 2244 2236 2277 2211 2923 2932 
2305 2304 2394 3219 1064 2419 2394 1099 1064 
3219 3219 1022 1064 2382 2382 2419 1023 1064 
3106 2944 3202 3264 2884 2227 3309 2285 2903 
3176 2198 2174 495 2198 2174 2164 2897 2903 
2164 3197 2902 3182 2173 3237 2174 73 1758 
3182 2174 1758 1757 495 2902 3237 2173 2911 
2740 2698 561 2697 2673 1280 1338 2650 2746 
2762 651 2741 3081 2780 3271 2794 2746 651 
635 2741 2673 1338 1280 1211 3053 3042 2765 
2743 2764 626 599 3250 3134 3055 3183 3062 
2795 2801 624 2784 3279 2702 2721 3235 559 
2763 601 558 2763 558 600 601 2702 2721 
2727 2764 1399 2658 2631 3208 3072 2795 3250 
2779 3464 2537 1139 1137 2508 2569 2476 2509 
2537 1217 1218 1139 2537 1218 1217 2509 2508 
1218 1140 1139 2508 2476 2569 2533 3583 288 
737 287 3261 2938 2929 3187 2354 737 814 
3224 2354 737 816 814 2352 385 1740 3193 
2940 3178 3187 3261 2485 2389 3268 2488 2959 
3268 2460 3263 2877 3099 2893 3209 2022 1973 
3160 1999 2889 2099 2100 3212 2952 3284 2327 
2961 2895 2111 2112 2885 2894 2910 2138 2893 
2578 2983 3000 2547 2990 3009 2989 3039 2386 
2423 1606 2385 2386 1606 1604 2385 2386 2424 
1606 2423 2551 890 950 2552 2981 2456 2999 
2989 1971 1389 1391 1972 1972 1389 1391 1445 
1972 1445 1391 1447 1972 1447 1391 1951 3518 
23 177 3338 1997 1443 1389 1972 1997 1442 
1443 2021 1971 1389 1329 1331 2912 2919 3176 
3232 2239 1755 2240 2270 2270 1754 1755 2240 
2919 3176 2198 2903 2939 3232 2255 2928 3137 
2939 3232 2924 2714 958 1013 2692 2715 1013 
1011 2692 2692 956 958 1011 2715 1013 1058 
1011 2692 958 1013 1011 2714 960 1013 958 
3086 2737 3073 3070 3300 13 1552 2623 3053 
2745 2724 2744 2973 3268 2460 2959 3263 70 
451 1642 2959 2460 2461 2429 3066 2727 2703 
2779 3272 2793 3248 2776 2795 598 625 2779 
2764 557 558 2721 3279 2674 3208 3235 2778 
600 627 601 2764 599 626 600 3082 2807 
2797 3272 3153 3181 2523 2507 2340 1293 1295 
1225 2340 1225 1295 2339 2411 1223 1225 1146 
2411 2375 2471 2444 2411 793 795 716 2411 
2447 795 2471 2987 2405 2953 2975 2962 2366 
2365 3154 2400 2399 1666 2365 3241 3146 2570 
2534 2438 194 1666 2399 2701 2680 2781 2766 
2701 591 2781 2747 2701 2781 622 2766 2701 
2781 591 622 2701 2747 2781 2680 2824 622 
638 2766 2766 638 639 622 2766 639 638 
2768 2334 2343 1538 2312 2334 1538 1520 1539 
2334 2312 1538 1539 2334 1539 1520 2306 2334 
2312 1539 2306 2680 2747 2781 2783 2680 3069 
2719 2783 3069 2799 2781 2798 3246 2076 1846 
3161 2851 2015 2014 2045 2045 1328 2047 1330 
1967 1968 1334 1993 3304 2826 1905 1902 1993 
2016 1334 1992 2860 2038 3236 3185 2860 3185 
3236 2879 2886 2206 3215 2169 2065 365 366 
3169 3565 3427 719 2090 2206 798 2204 2091 
3402 2169 1632 2091 2352 1728 2353 3268 3068 
2692 3267 2714 2578 951 2607 2582 2457 432 
1731 2424 2973 2488 3152 2518 2125 1313 1243 
1311 2125 1243 1313 2129 2125 1311 1243 2148 
2125 2148 1243 2129 2125 2126 1311 2148 2125 
1374 1311 2126 2272 851 780 849 2272 2106 
2129 2125 2889 3212 2124 3149 3159 2904 2870 
2866 2920 2199 2229 2230 2961 2395 2360 2362 
3204 2222 2248 3226 2176 1437 1436 2178 2888 
2098 2097 2121 2962 3117 2401 3154 3218 1566 
2164 2198 1970 1329 1260 1262 2834 1971 1995 
1970 1944 1681 1963 1964 1970 1995 1327 1329 
3580 2537 1137 2571 1942 1962 1260 1970 1949 
1932 1925 1911 2826 2829 1899 1900 1997 1387 
1442 2019 1932 1900 1916 1927 3304 1913 1917 
1928 2259 1563 1581 71 2928 3232 2255 2228 
2213 459 460 1671 2213 2238 459 1671 2212 
1671 2238 2213 2924 2239 2240 2270 2212 1671 
460 1672 3237 2903 3176 2912 3607 3478 1170 
2175 1897 1903 1896 1889 1903 1916 1914 1896 
1901 680 212 1896 3555 85 682 3453 1886 
1824 1893 1897 1897 1893 1881 1824 1888 1886 
1889 1897 1929 1270 1337 1930 542 1886 90 
551 3359 523 1783 109 2505 927 865 925 
2504 2475 799 2533 2535 927 2534 2505 2471 
925 2472 2505 2506 2472 925 2505 1911 1684 
210 1683 2829 1900 1916 1932 678 1927 211 
1912 3585 316 1198 315 1927 678 211 679 
1911 211 1900 1912 1911 1900 211 1684 2147 
1545 2124 3230 3192 2075 3303 2102 3303 1473 
1423 1471 3149 3230 2152 2147 3149 2124 3230 
2147 2986 2397 2434 2974 2259 2239 71 3232 
2275 1432 1430 1375 2275 1377 1432 1375 2174 
1758 73 1757 3156 2468 2470 3005 2301 2302 
1481 2273 3027 2554 2584 3299 2922 2232 3191 
2201 2258 3211 2921 2232 2352 3193 1740 3263 
2712 2670 836 759 3533 3363 1882 2820 2670 
2712 836 2733 2670 2643 449 1654 2670 449 
2643 2644 2882 2054 2073 2103 3084 2852 2842 
2856 2054 2053 1492 2024 2874 2055 2073 2053 
2283 1016 1060 3291 3245 3309 970 2285 2054 
2074 1477 2103 3160 2052 2024 3286 2361 1043 
1041 2358 2361 2326 1041 2327 2361 1041 2326 
2358 2946 2334 2312 2966 2930 2139 3301 2140 
2931 2901 2930 2895 3175 2056 1843 2026 2193 
843 908 2159 3205 2250 2249 3291 3245 1020 
970 3309 2226 2224 2250 965 2224 966 909 
910 2193 965 909 2224 2193 2224 909 2190 
2074 2105 1427 2103 2193 2226 965 2224 3068 
3026 3267 3174 2995 2458 2427 2440 3299 2557 
1074 2585 3122 3048 3050 3039 2957 2347 2318 
2320 3048 3039 2638 3050 699 697 2132 2079 
2132 2080 699 2079 697 699 2132 779 2079 
699 312 2080 697 2132 3302 779 2079 312 
1820 2080 2080 1822 312 1820 3281 1528 1488 
1529 2053 3150 2024 2054 2052 1531 1549 1530 
3171 377 120 1940 2052 1549 1531 1519 3092 
3286 3160 3150 3160 2022 2024 2052 2052 2022 
1531 1530 2232 417 1594 3311 2960 2358 2325 
2357 2877 2110 2088 2087 2111 2112 1591 3294 
2900 2909 2893 2137 3218 1565 343 1566 2138 
416 415 1708 2984 2433 2395 2988 2866 2042 
2861 2870 2346 1063 2381 1021 3099 3209 2892 
2893 3136 3093 3094 3099 3135 2868 2869 3196 
2103 1372 1429 1374 2075 1515 1517 1475 2075 
2104 1515 1475 2872 3281 3286 2881 2074 1475 
1517 1477 2776 2760 957 3248 2704 2728 1204 
2729 2704 1203 2711 2729 3473 2728 1119 172 
2729 1204 1203 1119 2728 2729 2784 554 2704 
1204 1203 2729 2704 2683 1275 2703 2569 801 
871 803 2569 2537 801 803 803 2600 2569 
2537 2569 871 801 869 2475 2508 799 2533 
2504 797 865 867 2533 869 799 867 2233 
3293 2263 932 2838 1982 3166 1957 2828 2832 
1922 2831 2839 1939 2831 2838 2850 3249 2841 
2847 2834 1926 1943 1921 1996 1327 1258 1260 
1939 1940 1921 1771 2132 779 781 2162 2132 
3302 779 2161 2132 2058 2080 2079 2875 2161 
2157 3302 2351 1560 336 1561 2946 2312 3290 
3222 2320 65 1562 1561 3229 348 1560 347 
2442 1304 1365 3216 2765 637 636 643 2765 
647 637 643 3078 2765 3271 2767 3081 2794 
3271 2778 2765 637 647 2767 3074 3043 2741 
2746 3389 1196 1194 214 2874 3258 2055 2871 
2956 2284 2283 3205 3553 3387 703 2081 2047 
1332 1390 2016 2855 2045 3258 2871 2839 2831 
1922 2832 2871 2055 2047 3258 3258 2874 3158 
2871 2855 1990 2001 2013 3258 2068 1328 2045 
3006 3005 2503 2529 3133 3134 3312 3282 3048 
3057 2642 3277 2736 2758 1115 2735 2341 2311 
3264 3266 2397 1067 1102 2435 2375 2471 3307 
2376 2397 2434 1067 2435 3100 2980 2977 2899 
2392 1045 998 1047 2392 2393 1045 2432 2921 
2231 2200 2230 2352 2321 385 3193 3173 2358 
2357 2392 2329 2299 457 3254 2933 2975 2954 
2965 2962 2401 2366 3154 3164 2616 2617 3051 
3125 3058 3063 3056 3008 2483 2516 2484 3038 
2608 2550 3026 2456 398 2483 2484 3048 3038 
2609 3039 2456 398 1698 2483 2687 2663 1281 
2664 2688 1210 1279 1281 2686 2687 2731 2663 
2664 1281 1395 1345 2664 1345 1395 2665 2664 
1345 1282 1281 2664 1282 1345 2636 1998 1392 
1446 1448 1998 1446 1392 2016 2025 1492 1446 
1444 1998 1493 1448 1446 1998 2023 1493 1446 
1999 1493 2023 2024 1998 1392 1448 1394 1993 
1394 1392 1998 1973 1951 1968 1447 2349 422 
1604 1602 3115 3143 2958 3110 2949 3001 2959 
2971 2959 2489 2461 2460 2973 2350 2353 2959 
2519 2553 1004 2552 2519 1004 949 2552 3198 
2064 2062 2084 1939 1957 2839 1940 1997 1387 
1995 1971 2961 2327 2360 3284 3255 1037 1077 
1035 2293 2317 1033 3269 3220 2294 3269 2293 
2237 199 2212 2211 3237 2211 2212 1672 2211 
1672 199 2212 2954 2923 2304 2932 2237 2267 
2277 2305 2583 1052 1053 2614 2583 2553 1004 
1052 2583 1005 1053 1052 2583 1005 1004 2552 
2384 2385 60 2422 3115 3028 3027 3040 2383 
1700 335 2420 2071 1440 1487 2099 2071 2099 
1487 2100 2071 1487 1488 2100 3196 3151 2007 
1983 3281 1488 1528 2100 3281 2102 2100 1528 
2694 3063 2684 2705 3016 2538 2539 2511 2660 
2633 933 2600 3035 3047 3316 3046 3269 2317 
1073 2316 2066 411 412 1589 2066 1589 412 
2089 2878 2868 3314 2036 3278 926 866 928 
2266 3284 2952 2931 3551 317 1195 3396 3551 
318 1195 317 1913 1826 1789 1902 1929 1270 
1197 1195 1915 1827 1789 1913 2873 2053 2073 
2054 2882 3309 2285 2884 2926 2224 2226 2193 
2859 2033 2062 3306 3084 2851 1974 2855 2917 
2879 2887 2860 2849 1986 1983 3196 3278 866 
868 928 3278 928 2233 930 3278 1031 982 
984 3278 928 984 982 1740 70 3263 3193 
2352 3263 452 3268 3268 2389 62 2353 2949 
2319 2321 2288 2352 1728 384 69 3224 1639 
1638 3211 2959 2973 2489 2460 3187 3263 2429 
2390 2441 1424 1422 2442 3228 662 196 197 
2953 2328 2329 2297 2297 196 1668 1669 3228 
196 661 2328 2297 1668 196 2328 3164 3287 
2616 3051 2889 3212 3085 3172 2886 2895 3220 
2931 3278 2293 984 2263 2293 2317 1031 1033 
3317 2010 476 97 2266 2265 936 934 2294 
2263 986 2293 3147 2952 3284 3096 2968 2382 
2345 2381 3303 1471 1423 2151 2382 1022 972 
2381 2863 2159 2193 3158 3084 1974 2000 2855 
3319 8 503 160 2954 3213 2303 3177 2320 
65 340 1562 2320 1562 340 2287 2320 2287 
340 2318 2320 340 65 2318 1340 2658 1397 
1398 3036 2599 2598 3024 1449 2631 2605 2599 
2605 1403 2576 2575 3399 2752 552 175 3145 
997 999 943 2975 2403 2369 2965 2270 2259 
1755 345 2290 2298 2322 346 2918 2928 2228 
2919 2975 2404 2369 2403 3539 261 1150 262 
2278 712 789 2337 2278 712 710 789 3430 
712 710 2278 2549 751 753 828 3574 3413 
753 2549 2549 446 1650 445 2580 1652 447 
2611 2550 1734 1735 446 2549 2608 828 2639 
3017 3296 2546 2545 3262 2403 3285 2441 3228 
197 196 1669 3508 153 475 154 3004 2499 
3283 2500 2965 2976 3285 2368 2290 2270 2298 
346 2374 1227 1225 2339 2374 2337 1227 2339 
2374 1148 1227 2337 2444 791 861 793 2444 
923 861 2445 3579 238 1149 3315 3551 318 
1789 1915 1642 1639 3193 70 3377 1643 1642 
2354 3545 288 1643 289 3583 2354 737 3377 
3619 3381 1134 32 3545 2354 1643 3377 1987 
208 142 1988 2072 2011 3238 2041 1988 208 
142 1680 1988 1963 208 1680 2048 1803 324 
1801 2048 1801 324 2017 2044 1858 1835 2013 
2013 1799 1835 2017 3458 2296 1161 1163 2874 
2862 2053 2873 3426 325 1181 324 2858 2004 
2032 2030 3087 3084 3091 2856 3161 3302 777 
2078 3221 967 968 2252 2249 3221 2251 967 
2224 3221 910 2190 2249 966 1016 2250 2224 
965 909 966 2224 966 910 3221 2908 2191 
2192 3221 3049 3305 3234 2644 2668 897 956 
954 3305 1738 1737 425 3033 3068 3049 3054 
3017 3026 3296 3037 3026 2639 2608 2550 3025 
3296 2544 2577 2581 2611 1736 2612 2172 2217 
1169 1248 1248 1250 2172 2180 2172 2217 1248 
2180 669 202 2172 2117 1250 1248 2172 1171 
2172 1250 2117 2180 2333 2305 1310 1240 2333 
2332 1310 2305 2333 1308 1310 2332 2333 1238 
1308 1306 3117 2975 2963 3109 2521 2491 1049 
2492 2521 1050 1049 2491 2521 1090 1089 1050 
2555 1089 1090 1106 2585 2556 1032 3146 3156 
2454 2470 2443 3056 2661 3287 3051 3153 3146 
2556 2585 3287 3164 2585 3146 3056 3265 3051 
3287 2352 3263 1740 452 2389 2973 3268 2488 
2352 452 1728 3268 2352 1728 1740 384 2485 
62 1645 3268 2940 3261 2921 3178 2973 2389 
3268 2353 2973 2353 3268 2959 3402 1631 1632 
279 3522 3402 721 279 2983 2551 2552 2518 
3018 3233 2583 2552 2958 2349 2385 2971 3000 
2578 2579 3039 2426 2459 442 1731 2959 2321 
2350 2353 2387 2971 2424 2386 3233 2582 2551 
2578 2551 891 890 2547 2423 2457 2983 2424 
3229 2330 348 347 2388 3229 1560 2351 2962 
2329 2365 3254 2963 3229 2330 3254 2595 1464 
2596 3242 2595 1464 3242 2567 2001 1832 1857 
1834 2001 1990 1832 1834 2044 2057 1842 3175 
2044 1842 1858 3175 2963 2330 2299 3254 2329 
456 457 1667 2962 2329 3254 2299 2329 1668 
457 2299 2962 2299 3254 2963 3304 1917 3257 
1928 1910 1899 1767 1908 1950 1391 1951 1972 
2043 205 206 2041 2898 3308 3203 2870 2101 
1322 1321 1253 2943 2953 2329 2297 2297 2329 
1668 2328 3455 661 662 232 3559 277 1630 
278 2405 1306 1304 2406 3570 3455 661 3228 
2054 2073 1479 2053 2054 2024 1519 3286 2105 
2074 1427 2104 2883 2105 2074 2103 3451 2652 
1741 2676 2159 2863 2193 2158 1975 1976 1877 
1953 1975 2002 1874 1976 1975 1877 1869 1953 
2926 2226 2224 2250 3288 3306 1981 2847 3162 
115 372 1719 3278 982 926 928 3200 3243 
2204 3278 2264 2235 934 3293 2233 930 2263 
3278 2206 2204 866 3278 2231 417 1717 418 
2231 1595 418 2258 2231 1717 417 2200 3550 
2081 1822 2059 3550 2059 701 2081 2207 860 
790 792 2207 790 860 2163 2887 2163 2092 
2170 2032 2865 2039 2858 2197 860 2163 2207 
852 2163 2197 860 2197 2225 860 2207 1950 
2829 2834 2843 1970 1995 1329 1971 1942 1186 
1260 1962 1260 1262 1942 1970 1944 1970 1962 
1942 1949 1926 1925 1942 3198 3169 2034 2064 
3247 2011 2012 1988 2049 1384 1385 2070 2049 
1384 1324 1385 2861 3247 2098 2072 2049 1385 
1324 1325 2049 2018 1385 1325 2233 930 870 
932 2206 3293 870 800 2206 3278 868 2233 
2941 2284 2252 3243 3243 3278 926 866 3135 
2869 2941 3196 2882 2285 3309 3245 2834 1921 
1943 1939 3161 777 695 2078 3196 2868 2036 
2007 3185 394 2092 3292 2848 3292 3214 2860 
2993 2432 2985 3173 2288 2256 420 2257 2341 
2340 1356 3266 3187 3193 3263 2390 3050 2607 
2613 3233 2765 2767 3053 2744 2949 3187 2929 
2938 2525 1748 54 1747 2525 462 54 2496 
3154 3297 2440 2402 2560 1747 462 1745 3131 
3032 3014 3030 2560 2590 461 2591 3002 3034 
2566 3022 3003 3014 3223 2497 3019 2563 2562 
3032 2272 2148 2126 2125 2272 2125 2300 2285 
2106 2285 2272 2253 2272 849 2253 2285 2272 
2300 849 2285 3111 3261 3187 3178 3105 2918 
2920 3104 3187 2430 2390 2429 2319 2288 1600 
2321 2949 2288 2256 3184 2489 888 947 2461 
2429 3263 2460 2428 3303 1423 1473 2104 3256 
1467 1469 1419 3479 2697 1128 167 2907 3256 
2906 3204 2980 3097 3147 2970 3096 3284 2264 
2931 2891 2134 2108 3159 2859 3306 2012 2033 
3085 3138 3101 3098 2109 2086 498 2108 2109 
1763 1762 498 2237 2277 2267 2236 3576 2210 
666 2236 3576 3460 666 2210 2923 2211 2277 
2237 2236 2267 1165 2277 2236 2210 666 200 
2237 2211 2277 2236 2236 199 666 665 3459 
1167 1165 229 2050 2051 1441 2019 3288 2859 
3306 2847 2064 1571 3169 2034 1981 1774 467 
1775 2859 1989 2012 3306 3150 3286 2024 2054 
1981 468 1774 1956 2539 2512 1405 2540 2539 
1349 1405 2512 3125 3052 3065 3058 2574 1348 
2540 2539 3031 2740 2672 2673 3031 2561 2648 
2592 2591 2626 2723 2625 3031 2722 2672 2740 
59 2625 36 1746 2626 2722 2676 2652 2625 
36 1746 3207 2618 2561 16 2592 2586 3274 
2648 2619 2586 41 653 2618 2177 1524 1525 
2181 2177 1525 1524 1484 2177 1484 1524 2214 
2177 1485 1525 1484 2889 2100 2124 3212 2759 
1010 1046 1012 2759 1010 999 1046 943 941 
3145 997 3077 3075 3145 2769 3272 3072 3250 
3066 3070 3145 2705 2720 3023 2573 2604 2574 
2573 2603 1284 1215 2573 1285 1284 1348 2573 
2632 2572 2538 2573 1284 2604 2574 2603 2604 
2635 2685 2603 1284 1283 2604 2603 2604 1283 
2635 2603 1214 1284 1215 2309 2339 1227 2337 
2309 2373 2410 2409 2309 1227 1297 1229 2309 
1227 2339 2310 2309 2310 2339 2409 2409 791 
789 859 2409 859 789 2373 2072 3238 1178 
2041 2861 2098 3247 2888 2859 2866 3247 2888 
2866 2861 2012 3247 3461 1165 1163 230 2072 
1254 1178 1255 3575 2236 1165 3459 2072 1178 
1254 2041 3159 2085 2063 2086 1437 2143 2121 
2144 2144 1382 1381 2145 2144 2145 1381 2178 
2144 1381 1382 1437 2144 2178 1381 1437 2373 
2338 2967 3259 3259 976 977 921 2890 2127 
2150 3148 2915 2336 2372 2344 3259 1026 977 
976 3259 977 1026 2448 2322 2320 2972 2950 
2370 1518 1516 3285 2443 1514 1535 1512 2923 
2238 2237 2932 2995 2467 2498 2458 2965 2403 
3285 3262 2933 2932 2975 2943 2149 2148 1241 
2126 2182 2281 2148 2149 2149 1241 1309 2126 
2149 1241 1239 1309 2182 2148 1241 2149 2149 
2153 1239 2183 2153 2890 2282 2127 2504 865 
795 2471 2471 793 863 795 2505 981 927 
925 2506 979 981 925 2535 927 983 2570 
2535 2506 981 2505 2978 2413 2376 2505 3079 
2782 2796 3076 3068 3267 2692 3174 3296 3026 
3049 3037 3174 3277 3057 3048 2577 2594 2606 
1618 2577 1618 402 2594 3049 2667 3267 3026 
1888 1897 1785 1781 3548 3421 1197 1897 1897 
1787 1881 1902 1897 1881 1787 1785 1896 1895 
1898 1891 2826 1916 1914 1930 3453 2815 1196 
3339 1898 1893 1881 1897 1897 1914 1896 1903 
1895 1896 1898 2826 1897 1902 1896 1914 1969 
1990 1797 1832 1969 2014 1994 1990 1969 1187 
1994 2014 1969 321 1795 1797 3423 1969 1795 
1948 3227 944 998 942 2391 884 944 882 
2391 944 884 946 2391 946 884 2430 2430 
946 884 886 2429 884 886 2430 2429 2390 
884 2430 2429 886 884 816 3454 2169 1633 
280 3535 510 1823 2107 2886 2878 3215 2869 
2091 390 1631 391 2091 389 390 3215 2204 
2206 3236 2869 2090 2204 719 2091 3402 2169 
721 280 2352 384 385 2321 2991 3001 3110 
3010 2429 2354 3263 2428 3594 3384 1186 1942 
2352 1740 385 384 3561 1942 677 3411 3287 
2633 3265 2997 3063 2684 2705 3023 3063 2660 
2684 3023 3056 2660 3163 3063 3177 3213 2303 
2301 3063 2694 3163 3058 2901 3294 2166 2167 
2111 2088 413 3314 3212 2889 3085 3149 2891 
2134 3159 2897 3099 3198 3209 2877 2960 2327 
2326 2361 3053 3042 3300 3044 3032 2563 3300 
3044 3595 2374 1148 3469 2560 2527 355 2589 
3042 2589 3300 3032 2622 2589 1552 3300 2622 
1552 2623 3300 2417 1499 1458 2453 2417 2453 
1458 2416 3164 3028 2557 3153 3028 3299 2554 
3027 3015 2978 3241 3199 2341 2377 3199 2342 
2370 1516 1537 3239 3139 2934 3177 3103 3083 
2725 2681 2824 3372 2700 590 153 3592 291 
1646 292 1691 2700 1689 1697 2700 1692 1691 
2678 2745 638 2768 2766 2745 620 589 2724 
2745 638 623 621 2533 2568 2476 2569 2508 
799 801 722 2475 722 799 2508 2533 799 
869 801 2533 801 869 2569 2504 2505 865 
2471 2475 2533 2449 2476 2504 2471 2412 2505 
3075 3248 2770 2769 3126 3142 3312 3129 3072 
2728 2703 2704 2769 1113 955 3248 3272 3081 
3250 2797 3134 3272 3183 3077 3066 2778 2764 
3250 3071 2734 3080 3076 3081 3082 2797 3272 
2979 3204 2988 2915 2979 2915 2380 2967 1524 
2177 2218 2181 2448 2996 2493 3260 2218 1542 
1543 1507 1541 3290 1504 3226 2232 2231 417 
3311 2218 1524 1542 1523 2218 1524 1543 1542 
2218 2188 1543 2181 3045 2657 2621 2629 3074 
2762 3271 2746 3074 2746 3271 2765 3224 1641 
1640 1638 3178 2910 2921 2922 3550 2059 1822 
2080 3224 1638 1640 2260 3550 2080 701 2059 
2898 2179 2145 2904 2464 2432 1087 2465 3120 
3116 2974 2984 2228 2254 342 2255 1465 2248 
1463 1415 2349 422 3184 2348 1942 209 1682 
91 1942 91 1682 1926 1944 209 1682 1942 
1944 1943 1682 1681 1944 1962 209 1942 1942 
675 209 676 3593 3384 1184 219 1942 209 
675 1962 2867 3198 2034 3288 3514 2820 1817 
2060 3224 1638 1639 1641 2877 3169 2087 2065 
3514 2060 435 2820 1890 474 84 1688 1890 
1788 1825 1786 1890 1784 1825 1893 1825 1894 
1890 1893 1910 1770 1767 1899 1910 1770 378 
1767 1910 1767 378 1923 1910 378 1770 1922 
2830 1936 1935 1919 2849 1986 1984 3310 2443 
1512 2470 2468 2388 1559 3229 2425 3157 3216 
3283 3298 2442 3216 1365 3283 3125 3006 3170 
3128 2616 1036 1034 1076 3426 2048 1181 2069 
3201 2401 2427 3229 3039 2578 2607 3233 3201 
2963 2401 3229 2383 336 2347 2351 3002 3252 
3315 2466 3369 3315 1147 238 3013 3315 3253 
2496 3315 1147 238 1149 3013 3315 2466 3002 
3252 2531 1149 1228 3067 2729 2711 2785 2704 
2711 1274 2689 2689 1340 1339 1274 2689 2683 
1340 1274 2666 1397 1339 1340 2666 2683 1340 
2689 2666 1340 1339 2689 2666 2658 1340 2683 
3075 2666 2665 2688 2395 2362 1101 1100 2395 
1066 1101 2434 2248 1463 3266 3226 2311 1356 
1413 3266 3290 1463 1504 3226 2407 2372 1024 
2408 2433 1024 1066 2408 3478 272 1170 3457 
3085 3172 2177 2913 3298 3021 3022 3242 3127 
3165 2529 3006 3127 2529 3004 3005 2597 1357 
2566 2565 2597 2566 1294 2588 2597 1357 1294 
2566 3022 2565 2566 2530 3129 3124 3007 3126 
3143 3118 3109 3137 2530 3298 1359 1361 2718 
1764 482 2719 3492 3324 1123 1120 3493 3492 
1120 3324 2718 1656 44 439 2718 2739 1656 
439 2718 2717 1656 2739 2718 44 1656 2717 
3355 538 119 2820 2976 3262 3285 3156 2819 
137 1722 1724 2987 2404 2405 2975 2442 3283 
1365 1422 3299 1074 1108 2616 2983 2424 2389 
2387 3152 441 442 1646 2983 3000 2457 2990 
3152 2488 2389 2485 2518 889 2460 2488 2843 
1933 1951 1950 2826 1895 1900 1899 1933 1393 
1333 1335 1909 1921 471 1911 1950 1333 1393 
1391 1950 1391 1393 1951 1933 1951 1393 1947 
2839 1922 1940 3171 2743 619 637 2744 2743 
2744 637 2765 2743 2724 619 2744 2743 617 
619 585 2743 2742 617 585 3042 3043 2743 
2622 585 2724 2743 2654 3067 2785 2711 3194 
2803 180 562 560 3487 181 750 2804 2786 
2749 552 596 2786 596 560 562 2785 2749 
553 2729 2732 2752 2751 2788 2749 2752 1116 
2732 3399 2752 1116 2749 2732 2752 1116 1202 
2825 2709 1208 2732 1955 1961 1838 1936 1978 
1961 1838 1955 1978 1805 1838 1883 1978 1955 
2010 1960 1978 1955 1805 2010 1979 108 136 
2005 1979 1955 2010 1805 1955 1839 1838 1805 
1979 2005 1840 1807 3330 2010 1805 514 2930 
3301 2139 2168 2234 2262 876 806 2234 876 
874 806 2234 874 876 2265 2234 2265 876 
2262 2234 874 2265 2235 2895 2113 2139 2140 
2961 2960 2361 2327 3200 3236 2205 2879 3200 
3243 3278 2941 2206 2233 870 3293 2218 2223 
1542 1507 2218 2188 2223 1507 3203 1677 1676 
145 3106 3264 3202 3120 2177 1524 2218 2214 
1069 2474 2448 1027 2985 3260 2435 2397 3307 
2945 3266 3264 2446 978 977 1027 2446 1027 
977 2448 3035 2575 3316 2605 3070 3036 3047 
3073 2631 1449 2605 2637 2720 2705 1044 3145 
3047 3316 2637 2605 2111 413 2112 3314 3514 
2060 1817 2082 3514 2082 435 2060 2264 934 
932 3293 2233 930 868 870 3220 2233 3293 
2263 2886 2169 3293 2206 2937 2286 2254 2928 
2925 2934 2242 3273 2987 2943 2963 2975 3115 
2958 2957 2982 2521 1090 2554 2555 3011 2521 
2522 2492 3115 3040 3122 3121 3336 504 19 
2677 3582 3440 1175 2093 3529 2677 582 9 
2169 3293 802 2171 2264 2263 988 2294 2266 
2264 934 988 2266 934 990 988 3227 2356 
942 2357 3178 2951 2323 2324 3227 944 942 
2356 2431 1047 2432 2392 3366 1938 1796 1798 
1796 1937 1798 1938 1937 1920 1796 1833 1920 
1937 1796 1938 1937 1796 1798 1833 2817 507 
107 1769 379 128 2817 1924 1938 131 107 
507 107 1920 131 1938 2817 107 507 1938 
1920 107 131 1780 2480 2512 1456 2479 2480 
1456 1457 2479 3058 3051 2646 2661 3035 2540 
3024 3170 3035 2604 2706 3046 3005 3004 2468 
2500 3019 3020 2563 3032 3052 2645 2617 2615 
2443 2454 1499 2417 3201 2455 2425 2458 2455 
333 334 2458 3114 3130 3115 3119 2983 2552 
2551 3233 2420 1700 335 1699 2420 2421 1700 
1699 2603 2634 807 2685 2659 875 2572 2632 
2572 2685 807 2659 2659 807 877 2685 2634 
1215 2603 2602 2603 2635 2634 2685 2603 1214 
2634 2635 2841 2018 1995 3249 2841 1944 1963 
1964 2834 2838 1943 2841 3249 2021 2019 1997 
1996 1944 1962 1963 1063 2346 2381 3219 2381 
1063 1022 1021 2394 1099 1065 1064 2394 1064 
1065 2419 3006 2532 2514 3165 3183 2666 2658 
2637 3044 2593 3300 2627 3035 2605 3047 3036 
3145 941 995 997 3272 2775 2792 2776 3045 
2598 2629 2595 3161 3302 1847 2028 3161 1846 
1816 2076 3425 3246 693 2076 2078 777 697 
3302 2078 695 697 777 2078 3302 697 2079 
2857 2875 3302 2028 2132 3302 2058 2079 3411 
677 676 1942 3410 295 1649 1650 3553 3401 
703 314 2161 2192 2157 848 2283 3291 1060 
2316 2846 2003 1977 2004 2917 2161 2192 2908 
2887 2170 2207 2163 3210 1860 1861 2004 3292 
3185 394 1585 2580 446 1651 2549 2549 446 
1651 1650 3413 296 1650 1651 3000 2579 3155 
3038 3438 2717 763 2755 2608 3155 751 826 
3487 2804 750 2803 2804 2803 562 2802 3487 
2803 562 2804 3067 3194 2810 2801 3194 2802 
2810 2801 3067 3194 2793 2810 2501 1361 3298 
2530 2987 3216 3283 3157 3056 3163 2660 2661 
2502 1228 2530 2531 2501 1361 1300 1363 3237 
1672 200 2211 2918 2897 2164 2891 3177 2273 
2302 2301 2954 2965 3213 3177 2902 2911 2903 
3237 2919 2228 2198 3232 2919 2928 2228 3232 
2185 1305 2184 2150 2149 2153 2282 2127 2307 
2315 2335 917 2307 2153 2282 2183 2335 2307 
2185 2150 2307 2153 2315 2282 2308 785 855 
786 2308 2189 785 786 2220 2313 2246 2245 
2313 2308 2184 2336 2220 2344 2246 2313 970 
2300 915 3245 2285 2300 970 3245 2381 2314 
971 972 2882 2106 3188 2884 3273 1434 1435 
1482 2334 2946 2964 2966 3138 3101 3104 3120 
3273 2273 1434 1482 2174 496 1758 495 2164 
496 2174 495 2471 2412 2505 2376 2375 2471 
2376 2412 2411 2375 2412 2471 3588 258 1144 
259 2412 2449 1221 2447 2412 1221 2449 2413 
2375 2339 2340 2444 3472 2825 740 738 2825 
817 738 2708 2709 2687 2750 2708 2825 1208 
1210 1127 2687 2708 2731 2750 2708 2750 815 
2731 2391 2430 3227 946 2391 3227 944 946 
2391 2356 944 3227 2991 2462 3227 2430 2464 
1088 1048 2492 3515 105 1802 88 496 2164 
2174 3197 3178 3173 3227 2992 2991 3227 2462 
2463 3178 2991 3227 2391 3556 298 755 297 
2667 899 897 830 2580 753 830 2639 2639 
2549 753 828 2549 2639 753 2580 2580 755 
830 753 2975 2965 3262 2403 2903 3237 3176 
2174 2928 2255 2254 2228 3204 2248 3256 2247 
2912 2923 2212 2911 3102 2894 2942 2952 3203 
3313 1675 2094 2896 2902 2141 2180 3243 866 
2205 2204 3162 1960 115 1719 3599 3449 734 
251 3185 2115 1628 2170 3522 279 721 719 
3559 3432 717 3186 2849 2848 1959 3214 3265 
2632 2538 2510 3201 3229 2427 2425 2615 1108 
2617 3299 3117 3004 3005 3127 3000 3155 2487 
3038 3404 747 749 2486 3554 3152 746 2459 
2625 2723 3207 2626 3565 2090 719 2091 3522 
719 721 2091 3565 2090 1631 3427 3521 159 
504 2 2591 15 37 2626 2655 2 578 
579 2907 2222 3256 3204 2915 3256 2187 2221 
2915 2187 3256 2906 3424 320 1191 319 2988 
2433 2408 2407 2988 2434 2408 2433 1932 1916 
1266 1927 1949 1331 1262 1264 1932 1333 1266 
1933 1911 210 211 1912 1911 211 210 1684 
1933 1333 1266 1335 1933 1335 1266 1916 3003 
3223 3297 2497 3426 2069 1803 2048 2441 3283 
1472 2468 2442 1365 1367 1422 3262 3283 2468 
3004 3216 1302 1365 1363 2469 1300 1302 3216 
2413 1353 1289 2414 2450 1288 1352 1289 2413 
1291 1353 2377 2413 2377 1353 2414 2450 1289 
1352 2414 2450 1289 2414 2413 2450 2449 1289 
2413 3005 2470 2503 2500 3078 2780 2767 3271 
2720 2695 1112 1082 2720 1084 1112 2693 2693 
1112 1096 1084 2693 1084 1096 2737 3049 2691 
3267 2667 3174 3267 2692 2668 3581 2093 669 
2117 3000 3289 2457 2990 3038 2609 3155 2608 
3403 1173 1171 226 3541 3437 708 2278 2577 
2544 401 1616 3181 2523 2507 2493 3202 2241 
2934 2913 2615 1091 1108 3299 2966 3239 2343 
2379 3287 3241 3168 3164 3006 2481 2998 3170 
3265 2997 2451 3241 2745 621 623 2725 3528 
152 595 3348 3528 3348 595 3083 3461 2267 
1163 1165 2866 2042 2012 2861 3549 227 667 
3397 2870 3308 2043 2101 3460 1169 1167 228 
2866 2861 3247 2888 2850 1963 2020 1988 2901 
2139 2168 2930 2202 386 1605 141 2202 2203 
386 141 2168 2139 1603 387 1931 1966 1191 
1948 3257 1931 1948 1966 3257 1793 1948 1931 
2842 1966 1965 1991 3304 1928 3257 1945 1945 
1267 1269 1193 1945 1269 1267 1946 2875 2058 
3302 2029 2076 1846 1816 1815 2863 2027 2156 
3246 2076 1815 1816 309 3425 2077 1815 308 
3425 2076 1815 3246 2884 2226 2194 3158 2863 
2027 3246 2000 2626 42 489 15 2626 1742 
2652 2676 1742 489 2626 42 2626 15 489 
499 2625 499 1746 15 3521 2 579 159 
2220 1303 2184 2219 2220 2221 1301 2246 2338 
2344 857 2313 2915 2220 2336 2344 2597 1355 
1294 1357 3125 3122 3052 3121 2596 1414 1412 
2565 2597 1294 1355 2588 2597 1412 2565 2596 
3556 298 1652 3422 3555 85 1196 214 2985 
2993 3106 3141 3555 214 682 85 3258 1388 
1328 1396 2960 2361 2326 2358 3528 152 484 
3 2984 2433 2419 2394 2867 3198 3169 2034 
3147 3096 3255 2970 2970 3219 2346 3255 3547 
3410 751 3155 3187 3193 2321 2352 2940 2355 
3193 3187 3416 310 695 309 2169 800 802 
3293 2930 2234 2235 2209 2895 2140 2139 2930 
2886 2895 2930 2140 2575 1403 1454 1404 2575 
1454 1403 2576 2706 2730 941 3145 2605 3316 
1403 2575 2878 2112 2895 2886 2878 2868 2036 
2869 2885 2112 3314 2111 2036 1713 411 2008 
2886 2113 2112 2895 2036 1712 1713 2007 2036 
2035 1712 2007 2288 2289 1598 1617 2288 2257 
1598 2289 2288 420 1598 2257 2898 2145 2122 
2904 3303 2151 1423 2104 2980 2419 3147 2984 
3370 2655 504 2677 3203 1676 1675 145 3159 
2063 2085 2876 2870 2101 2043 2861 2888 3247 
2097 2098 2861 2101 2072 2098 3603 3443 702 
2183 3586 3408 1153 2437 3013 2496 2466 3315 
2437 194 193 2438 3013 3002 2559 3315 3408 
236 1153 1151 2437 193 194 658 2438 194 
193 1665 2141 2217 2173 2172 3541 2245 708 
3406 2902 2141 2180 2217 3541 3406 1154 2245 
2898 2094 2180 3313 2925 2179 2216 2896 3125 
3058 3065 3128 2511 1286 1349 1350 3265 3241 
3168 3287 3265 2538 2632 3016 3023 2573 2632 
2659 2319 2321 1600 1602 2938 2321 2289 2288 
2391 2355 882 2356 2391 884 882 2355 2094 
2117 203 2093 2094 1675 203 2117 2094 1675 
1676 203 2094 203 1676 2093 2898 2896 3159 
3313 3323 77 1788 519 3218 2199 343 2229 
2984 2988 2407 2433 3217 2135 147 2108 3273 
2215 1434 2242 2232 1594 2201 3311 3120 3116 
3085 3101 2898 2896 2179 2904 3182 2173 1673 
2141 1567 2136 2165 3218 3138 2914 2897 3098 
2952 2327 3284 2326 3541 3406 708 264 3159 
2134 2108 2109 3104 2909 2920 3111 3182 1673 
1674 2141 3172 2121 2144 2888 2130 2158 773 
3246 2864 3158 2195 2160 2130 772 2159 2131 
2027 2000 1864 3246 2027 1846 3161 3246 2156 
2027 3161 3246 3246 1844 1846 1815 2857 2157 
2156 3161 2313 2219 2184 2308 2220 2246 1301 
2245 2380 919 920 2344 919 2380 920 975 
3259 2418 1026 976 2915 2186 2187 2151 3100 
2984 2977 2980 2979 2915 2967 3204 2726 616 
615 635 2726 2742 616 635 2655 615 614 
2726 1916 1900 1901 1927 3542 214 683 3389 
1892 130 682 683 1901 1192 215 1194 2618 
2592 2648 2561 3558 3398 1141 2618 2586 653 
41 654 3013 3274 2496 3253 3570 233 661 
232 3517 74 1176 326 3374 1176 1174 1179 
2119 690 687 686 3374 1179 1174 2119 3182 
463 1674 1673 2902 2141 2217 2173 2902 2217 
2216 2243 3568 3238 673 3415 3159 2866 2063 
2876 2896 2216 2180 2179 2902 2180 2216 2217 
3273 1434 2273 2242 2960 2357 2325 2951 2230 
418 1717 1706 3502 78 1200 89 3502 89 
530 78 3602 3448 1164 268 2392 2357 996 
2358 2392 2358 996 2393 2204 2205 3236 2090 
3432 1630 1629 3186 2090 1631 1630 391 3243 
866 864 2205 3243 926 864 866 3186 794 
717 2205 2848 3292 2009 1985 2170 2207 792 
3186 2090 3186 717 2205 3559 278 717 277 
3561 1925 677 1942 3561 1925 1188 3418 3561 
3418 677 1925 3561 3418 1188 217 3206 3022 
2501 3157 2994 2497 2495 3014 3002 3206 2530 
2531 3206 3022 2530 2501 3320 480 492 481 
2531 1226 1228 1296 1932 1264 1190 1266 1932 
1266 1190 1927 1932 1927 1190 1912 1190 1925 
1932 1912 3259 1026 2418 2448 2979 3259 2936 
2967 2979 2380 2418 3259 2979 2380 3259 2967 
2979 2936 3259 2996 2236 1165 1167 1244 2236 
2244 1167 2210 2236 2277 1165 1244 2244 2173 
2217 2210 2933 2270 2240 2271 3424 319 1793 
320 2431 1047 1048 2464 2431 2432 1047 2464 
2431 2464 1048 2463 2431 1048 1000 2463 2431 
1047 1000 1048 3502 89 1200 3500 3140 3104 
3111 2909 3541 264 1154 3406 3512 110 1627 
3466 2983 2426 3000 2547 3560 3420 757 299 
3560 299 1653 3420 3233 2613 2582 2607 2426 
2457 1731 2424 3559 3186 717 2090 2724 585 
2743 619 2654 585 2742 2743 2654 17 45 
360 2622 35 1552 2589 2622 1580 1552 35 
2083 86 134 2082 2083 2116 86 2067 2083 
2067 86 2082 2083 2061 2116 2067 2083 2082 
2061 2067 3082 2812 2807 3272 3047 3183 2666 
3075 3272 2792 2793 2776 2769 3248 1010 2759 
2769 3248 955 1010 3399 175 1116 2752 2706 
941 995 3145 3399 175 552 174 1997 1389 
1443 1387 1997 1389 1387 1971 1997 1972 1389 
1971 2834 1996 1995 2841 1939 470 469 1772 
1997 1995 1387 2019 2850 2049 2070 3247 3549 
227 1169 228 1982 2006 373 374 2706 995 
2705 3145 2720 1044 1084 2737 2720 1042 1044 
2705 2720 1044 1042 1084 3047 3145 3073 3077 
3399 174 1116 175 3070 2705 3145 3046 2706 
939 879 2685 2706 995 941 939 3077 3047 
3145 3075 2619 1222 1143 2558 3029 3274 2587 
2619 2586 2619 2558 3274 2525 462 3274 2560 
462 2525 3274 2496 3491 150 594 3322 3609 
2278 710 3437 2052 3286 1549 1519 2102 1529 
1547 1528 2052 2024 3286 1519 2878 3215 2037 
2066 3281 1528 1529 2102 2709 1210 1279 2688 
2709 1208 1279 1210 2688 2687 1281 2664 2709 
2688 2750 2687 2688 2687 1210 1281 2688 2770 
2710 2750 2688 1279 1395 1281 2526 1555 339 
53 2526 53 339 2528 2526 2498 53 2528 
2526 1555 53 2498 3174 2668 3277 2641 3019 
2562 2563 2526 3066 2764 2779 3250 2720 2693 
2737 1084 3126 3064 3057 3174 2567 1495 1532 
1494 2567 1494 1532 2542 2598 1494 1495 2567 
2738 1059 2737 2716 2598 2599 1494 2542 2905 
3148 2150 2184 3192 2881 3092 3286 2887 2092 
3292 3185 3192 2074 3286 2947 3087 3091 3090 
3088 2888 2122 2098 2121 3279 2721 2763 3235 
3279 2764 2721 2702 2698 1207 1209 2675 3401 
2081 1823 1879 3592 3152 745 3409 2485 743 
745 2488 2485 1646 1645 441 2485 291 1645 
1646 2147 2181 1544 2152 2147 1545 1526 1527 
2147 2124 1545 1527 3096 2931 2885 2894 2889 
2120 3212 3172 3168 3164 3051 3287 3265 3168 
3051 3287 3370 159 580 3336 3276 543 544 
1886 2875 2029 3302 2028 3246 1815 1846 2076 
2161 2192 850 2197 2161 850 2162 2197 2004 
1977 1873 2003 2865 2133 2058 2059 2875 2029 
2003 2004 2195 2196 840 845 3383 282 727 
2208 3552 1925 1190 1912 2874 2926 2226 3158 
2195 907 841 2194 2864 3258 2096 3158 3552 
1912 678 1925 2999 2484 3009 2989 3110 3028 
3011 3010 2912 2213 2212 2923 2958 2948 2957 
3184 2998 2454 3005 3156 3122 2981 2989 2982 
3264 2996 2945 3204 2958 2319 3184 2349 2309 
2410 2373 2279 2279 1229 1299 2278 2279 2278 
2246 2373 2279 1299 2246 2278 2953 2328 2297 
3228 2953 2297 2269 3228 3571 3458 1161 231 
2268 3228 2269 1669 2268 1669 197 3228 2296 
2268 197 3228 2953 2333 3228 2932 3092 2872 
3160 3286 2054 1479 1519 1492 2054 2053 1479 
1492 2053 2024 2023 1492 2053 1479 1492 1444 
2053 2073 1479 1444 2619 2648 1338 2650 2619 
1338 1290 2650 2814 1893 1890 1891 2814 1887 
1890 1893 1891 1688 1686 1890 2816 1894 1906 
1908 2827 1894 1904 1898 1894 1908 121 1895 
3053 2765 2744 2743 2673 1280 2650 2651 2673 
2675 1278 2651 2673 1278 1280 2651 2673 1209 
1280 1278 2673 2675 1209 1278 2820 2032 2067 
2040 3596 2708 738 3462 2820 1817 1845 1882 
3519 2820 1813 3363 2820 2060 435 2067 2820 
2040 1582 436 2060 2082 435 2067 3514 83 
1817 511 2040 100 1583 138 2039 138 2040 
1583 2820 1582 114 436 2820 435 1582 2067 
3349 114 435 511 2955 3291 2316 2346 2955 
3291 2346 3245 2883 2882 2054 2947 3205 2251 
2284 2283 3192 2075 3286 2074 3372 153 590 
1 2913 2214 2241 3273 2934 3273 2241 2274 
2914 3273 2178 2176 2925 2242 2215 3273 2597 
1355 1412 2621 3034 2597 2565 2596 2595 1495 
2567 2598 3242 3045 3165 3021 2738 2759 1059 
1012 3223 1554 2562 2526 3025 2577 2564 3033 
3304 1945 3257 2842 3304 1945 1946 1929 2852 
2842 1945 3304 1928 1915 1827 1791 2550 446 
1735 2580 3305 1737 1738 2644 2581 1735 1736 
447 3038 2579 2609 3039 3437 263 1152 1154 
2550 2639 2608 2549 2862 2055 2053 2025 2193 
2194 908 2226 2226 908 965 964 2226 965 
1015 964 3091 3205 2873 2926 2864 2044 3189 
2048 2855 2871 3258 3158 2508 2476 1218 2509 
2508 2569 2509 2537 2508 2537 801 2569 2508 
2509 1218 2537 3606 255 1139 256 2508 1218 
1139 2537 3137 3232 2912 2924 343 2228 1565 
3218 3137 3177 2935 3103 2948 2318 2286 2287 
2944 2306 2302 3225 2378 3222 1460 2379 2972 
2347 2351 2383 3104 2891 2900 3098 2228 343 
1565 342 2900 2199 3218 2920 3018 2519 2553 
2520 2297 1669 458 2271 2297 2271 458 2299 
2933 2943 2269 2932 2953 3228 2269 2932 2953 
2406 2328 3228 3109 2933 2975 2943 2965 3285 
2367 2368 3311 2231 417 2200 3311 2166 416 
2201 3311 417 1594 416 2137 1708 3311 2138 
3511 77 1788 3323 2137 1708 1707 3311 3312 
3133 3071 3132 3037 3174 3026 3068 3026 3296 
3049 2612 2577 401 2543 2564 3174 2641 3277 
3048 3544 3388 574 189 3388 2754 768 765 
2500 2529 1508 2503 2500 1508 1510 2503 2857 
2027 2002 2028 2027 1864 1846 3246 2015 1263 
1332 1265 2015 1991 1263 1265 2015 1992 1991 
1265 2015 1265 1332 1992 3540 2219 706 2189 
3540 2189 1158 2219 3540 2189 706 3442 3370 
3336 504 159 3170 2540 2541 2513 3568 3415 
1180 3238 3558 3398 653 242 3046 2604 2636 
3316 3398 2618 1199 1141 2740 2673 2675 2698 
3059 2673 2675 2740 2740 2697 2672 2698 2740 
2698 2672 2673 3031 2741 2723 2722 3059 2762 
2741 2740 2514 2513 1455 1497 2514 1496 1455 
2541 2514 2541 1455 2513 3065 2695 2671 2690 
2540 3024 2541 2575 3262 2441 2404 2403 2987 
3283 2442 3262 3019 2527 2562 3223 2365 3206 
3195 3154 3045 3242 3165 2595 2615 2617 1109 
2645 3282 2735 2758 2736 3021 2529 2499 3004 
3117 3127 3156 3114 3602 268 700 3448 2109 
1762 497 498 3601 2662 732 2634 3515 88 
526 105 1978 525 526 1961 1978 1883 105 
82 1978 82 105 94 3015 3146 2536 3153 
3370 3336 580 2677 2997 2450 2477 2451 2997 
3241 2568 2450 2341 1354 2377 2342 3153 2556 
2557 2585 2577 401 402 1618 2577 402 401 
2564 3174 2641 2640 2668 3054 2628 2627 2656 
2025 2055 1388 2047 2025 1390 2016 2047 2882 
3245 3309 2947 2025 1388 1390 2047 2882 2873 
2054 2947 2052 1519 1531 2024 3372 1 1743 
153 3372 1 590 2823 3372 2823 1743 1 
2819 1724 1985 2009 2025 1446 1492 2023 2025 
1446 1390 1444 2025 1390 1446 2016 2025 2016 
1446 1998 2025 1446 2023 1998 2300 970 915 
914 2874 2926 2873 3309 3245 1021 971 1020 
2381 2345 2314 972 3245 971 970 1020 2874 
2226 3309 2884 3288 1982 2006 3166 2918 3218 
2229 2920 3528 3 595 152 2961 2974 2395 
2362 3528 3 484 26 2065 1711 2088 3314 
2853 3249 1971 1997 3094 2904 2888 3172 2927 
2284 2941 3205 3152 2389 441 2485 2518 2552 
949 890 2937 2256 2254 3184 2937 2254 2229 
2928 2518 821 889 2488 3018 2971 2973 3001 
3152 2426 2547 2459 2081 2061 2116 2083 2081 
2116 2107 2083 2081 2107 1821 2083 2081 1821 
1850 2061 2081 2083 1821 2061 2081 1850 1821 
1879 1823 1821 2081 2107 3131 3030 3074 3032 
3066 2702 2764 3279 3279 2761 2675 3235 3279 
2675 2674 3235 3482 305 685 304 2296 2267 
663 2268 3482 305 1808 3189 3482 3189 685 
305 2932 2237 2305 2268 2296 197 663 662 
1993 1334 1394 1968 1973 1448 1394 1998 2837 
1936 1955 1954 2837 1955 1977 1954 2862 2023 
1998 2025 2832 2833 1910 3171 2311 1411 1461 
1462 2946 2312 3222 2966 3222 1461 1502 1503 
3222 1503 1502 2312 2137 3311 1707 2165 2945 
2280 3266 3204 3550 2080 1822 312 2910 3311 
2166 2138 2909 3311 2910 2893 2855 2001 3175 
2044 2044 1835 2017 2013 2864 2855 3258 3158 
2044 1858 2001 3175 2013 1994 1834 1799 2595 
1464 1495 1452 2595 1452 1451 2629 3507 101 
1885 3179 3053 3300 2623 2627 3053 3044 3300 
2627 3581 2093 1173 3440 3132 3025 3033 3037 
2473 979 923 978 2473 979 1028 2507 2473 
978 923 2445 3264 2341 3307 3199 3241 2450 
2414 2978 3404 294 1648 1649 2474 2446 1027 
978 3181 2523 2493 2494 2944 3290 3226 3264 
3307 2340 2376 2341 2829 1916 1900 2826 3563 
2041 671 3308 2835 1933 1951 2843 1911 1683 
210 1925 1911 1925 210 1912 2843 2829 1933 
1950 1911 1925 1912 1932 2678 2654 17 25 
2678 2623 25 1691 2654 45 17 25 2654 
2623 45 25 3383 2208 1635 282 2195 963 
845 907 2195 2227 963 907 3505 3496 488 
163 2571 803 805 726 2571 2537 803 726 
3557 253 1136 254 728 805 2602 807 805 
2602 2572 2571 805 728 2602 2571 2852 1967 
1992 1993 2874 3258 3158 2884 3162 372 115 
1941 3084 1952 1974 2842 2842 2836 2852 3084 
2852 1993 1968 1967 2795 624 2801 2806 3066 
2703 2727 2702 3272 3072 2801 2795 2786 2803 
3194 2802 2825 2732 2771 2709 3194 2710 2770 
2771 3067 2704 2784 3072 3580 255 726 254 
2806 2810 605 2801 2825 2787 2732 2751 3477 
1137 1136 2571 3066 2727 2764 2702 3066 2779 
2703 3072 3081 3250 2797 2794 2461 888 947 
886 2461 886 947 2462 2461 2462 947 2490 
3029 3059 2620 3041 3416 309 1816 310 2321 
2949 3187 2959 3018 3010 2519 2520 3178 2991 
2391 3187 2975 3262 2404 2403 2403 1426 1474 
1424 3508 153 589 2700 2369 1371 1369 2332 
2369 1369 1424 2404 2369 1428 1371 2331 2403 
2367 1476 1426 2369 1426 1371 1428 1677 1678 
2042 2043 3323 77 534 102 2870 2043 2042 
2861 3601 2634 1133 2662 2861 2011 2012 3247 
2136 2135 1568 3217 3196 3288 3151 3251 2861 
2011 2043 2042 2969 2382 2419 2407 3147 3284 
2359 3255 3595 2374 714 2337 2984 2977 2407 
2988 2181 3149 3212 3085 2433 2395 1065 2394 
3084 2855 3158 2871 2527 3014 3223 3019 3020 
2563 2528 2526 3007 2995 2482 3201 3020 3044 
2563 3032 2874 2873 2073 2882 3457 2118 692 
2119 2874 2884 3309 2882 3202 3225 2223 3226 
2946 3222 3290 2311 2946 2311 3290 3264 2946 
2306 3290 2312 3521 2 504 2655 3521 2655 
579 2 3520 96 131 3366 2655 2625 2624 
2726 3043 2726 2624 2625 2625 59 36 2624 
2655 616 615 2726 2655 615 616 580 2655 
504 500 36 3619 2649 1134 3381 3618 3341 
536 3501 3618 3501 705 3341 3618 3501 536 
3331 3618 3331 705 3501 3618 3331 536 76 
1930 1270 1335 1914 3304 1905 1918 1917 1930 
1337 1946 1947 1930 1337 1335 1270 1930 1335 
1337 1947 2857 1976 2003 2002 2027 2863 2156 
2857 2029 1867 1866 2004 2029 1849 1867 2058 
2028 1847 1865 1866 2028 1866 1865 2003 2785 
553 597 2784 2786 2732 2788 2752 2786 560 
2788 2803 2786 2749 2732 2752 2786 552 560 
596 3399 2749 552 2752 2749 174 1117 1116 
3511 3323 102 77 2232 1609 1594 1595 2232 
1611 1609 1595 2232 2258 1611 1595 3511 3323 
1788 1890 2232 1594 417 1595 2232 1595 417 
2231 1987 1962 208 1963 1987 1963 208 1988 
1987 1963 2020 1962 1987 2020 1963 1988 2020 
1962 1182 1987 1962 2020 1182 1258 2777 157 
22 584 2777 502 49 157 2777 502 5 
20 3346 2777 581 5 2777 157 5 502 
2777 5 157 581 3561 217 677 3418 2170 
790 792 2207 2170 2163 790 2207 3466 2116 
711 2115 2115 713 790 711 2115 790 713 
2170 2858 3292 2039 2009 2115 711 790 2163 
2967 2247 2936 3204 2435 2418 1067 1026 2435 
2448 2418 1026 2435 1067 1068 1026 2435 1026 
1068 2448 2955 2947 3291 3245 2315 2314 2968 
2345 3192 2104 2074 2947 2381 971 1021 972 
2314 2315 2968 2890 3371 169 1124 170 3331 
705 314 76 2980 3219 2346 2970 3175 2159 
2160 2131 2864 2096 2195 3158 2068 1183 1257 
1259 2068 2017 1183 1259 2068 2048 1183 2017 
2068 1257 1183 2048 2913 2914 3273 2934 2911 
2211 2173 2244 2912 2911 2212 3237 2912 2212 
2213 3237 2211 200 199 1672 2211 199 200 
2236 2350 2949 2319 2321 2973 2518 2519 2489 
2387 1729 1730 2389 3401 2081 703 2821 2387 
2424 51 2386 3000 2990 3233 3039 2387 2424 
1730 51 2127 2883 2314 2126 3615 3341 705 
3501 3150 2947 2054 2873 2883 2125 2126 2103 
3135 3092 3089 3088 2890 2150 2153 2315 2890 
2153 2282 2315 3148 2105 2968 2890 3275 154 
10 587 3275 10 154 39 3328 3275 587 
154 3577 3155 749 3410 3275 17 39 2678 
3361 2678 39 475 2378 1459 1460 1409 2378 
1460 1459 2379 3199 2311 2342 3222 2342 1460 
1410 2378 3265 2478 2452 2451 2535 2536 981 
2506 2311 2341 3264 3199 2342 1410 2377 2378 
3015 2535 2536 3146 2415 1408 1352 2451 2998 
3168 2417 3156 3401 2821 1823 2081 2259 1563 
2287 2255 2348 423 1701 2384 2348 2384 1701 
2347 2384 1701 1700 60 2384 60 1700 2421 
3087 2836 2845 3084 2968 2947 2104 3192 1999 
2023 1493 1998 1999 1493 1448 1998 2530 1298 
1359 1296 2559 1296 1294 1226 2559 1294 1296 
2566 2559 1224 1147 1226 3563 223 1177 224 
3429 3308 1175 1177 2875 2157 2161 2908 2908 
2192 2157 2161 3343 160 576 2755 2887 2207 
2225 2197 3599 251 1131 3449 2916 3090 2857 
3087 2860 3292 3214 2038 2206 2169 798 2091 
2206 3220 3293 2886 2233 3278 868 928 2206 
800 868 798 2091 719 721 798 2982 2385 
2971 2958 2939 2928 2255 2948 2933 2269 2240 
2932 3001 2973 2519 2489 2259 2290 2287 1562 
2964 2946 2306 2944 2924 2239 3232 2912 2101 
1253 1321 2123 2898 2123 3308 2870 2101 1254 
1177 2041 3333 3083 595 3320 2101 2861 2041 
2043 2997 3241 2450 2451 3170 2513 2541 2514 
3299 2616 1108 2617 3040 2584 3299 3027 3028 
2521 2554 2555 3558 242 653 241 3299 1107 
1108 1074 2038 407 1585 3292 2848 1977 2846 
2837 1954 1977 1859 1955 1954 1859 1936 1955 
2220 1301 1233 2245 2728 2779 554 2784 2728 
172 1121 1119 2728 2727 556 2779 3475 2728 
556 172 2728 172 554 556 3475 171 1121 
172 2779 554 598 556 2779 598 554 2784 
2818 1719 1722 1720 2818 2010 1960 1720 2818 
1722 1985 2819 2818 1722 1719 1985 3210 2004 
1977 1860 136 1979 2819 2818 2818 2010 136 
1979 1975 1870 1872 1952 1975 1874 1872 1870 
1975 1872 1874 2000 1975 2000 1874 2002 2921 
2231 2258 2232 3178 2992 3227 2991 2938 2289 
2257 2288 2431 998 1047 2392 3178 2324 2357 
2951 3059 2650 2651 2673 2728 1119 1204 2729 
2704 2728 2729 2784 2704 2703 1204 2728 3100 
3120 2984 3116 3493 3358 1120 3357 3102 3116 
2961 2974 3423 1948 1795 320 2952 2326 3284 
2295 2961 2361 2362 2327 3288 2838 1982 3166 
3147 2360 3284 2961 3512 2821 1627 3368 2942 
2292 2291 2951 3338 165 565 177 2850 3249 
2070 2050 1910 2833 1923 3171 2850 1988 1989 
1963 3249 2019 1995 1997 2889 2100 2099 2071 
3150 1999 2024 3160 3336 159 19 504 2385 
2423 2971 2386 3152 1730 442 441 3050 3039 
2607 3233 2989 2422 2421 3167 3137 3139 3105 
3107 3050 2638 2607 3039 3154 2401 2366 2402 
3270 3050 3065 3057 2972 2963 2322 2950 3115 
3119 3028 3040 2954 2331 2303 3213 3463 261 
712 714 3508 2700 475 153 2902 2911 2173 
2244 2244 2276 1314 2243 2925 2896 2216 2902 
2493 1070 1028 1069 2493 2523 1029 1070 2493 
1029 2523 2507 2493 1029 1028 1070 2493 1028 
1029 2507 2922 2323 2951 2291 3548 1902 1197 
3396 2185 1305 1237 1235 2307 2308 855 2335 
2307 2189 785 2308 2153 1237 1160 2189 2153 
2189 1160 2183 2149 2183 1239 1162 2153 1239 
1160 1237 2153 1160 1239 2183 3040 2614 2583 
3233 3437 263 708 710 3000 3155 2579 2548 
3000 3289 3009 3038 3624 3493 744 3620 3330 
1883 1805 1978 2883 3245 2314 2300 2882 2300 
2285 3245 2250 3309 3205 2926 3494 3329 1200 
2815 3614 3495 595 3 2854 3150 1999 2023 
2867 2065 3169 2877 2952 2295 3284 2266 2834 
1943 1926 1944 2868 2877 3314 2065 3111 3178 
3187 2991 3123 2972 3117 3201 3008 2516 2483 
2515 2999 2482 2483 2455 3123 3007 3201 2995 
3124 2994 3022 3034 3082 2774 2791 2792 3076 
2773 2791 2774 3067 2793 3194 3248 2760 2775 
957 959 2775 2760 957 2776 2776 957 900 
898 2776 900 957 2775 2860 3185 3292 2038 
3588 2447 1144 3444 2849 3310 1984 1959 2837 
1985 1960 3162 3508 3361 589 154 3610 2725 
594 2823 3610 2823 491 2725 1897 1824 1785 
1781 1886 1897 1893 1889 2714 2713 960 958 
1013 2735 960 2714 2735 1013 960 962 2714 
960 2713 2734 2714 2735 960 2734 3312 2716 
2715 2736 3071 3068 2734 2714 2149 1309 1239 
2153 2149 2127 2281 2126 2149 2126 1309 2127 
2132 2058 2133 2080 3343 160 33 161 3342 
539 549 119 2875 2004 2030 2029 2029 2028 
2003 1866 3257 1829 1793 1931 3257 1966 1945 
1931 1928 3257 1829 1917 1931 1191 1267 1193 
1931 1193 1267 1945 1931 1193 319 1191 1915 
1931 319 1791 2946 3290 2306 2944 2473 923 
979 2472 2473 2445 923 2472 2473 2472 979 
2506 2473 2506 979 2507 2319 422 421 3184 
2349 1604 423 2385 2349 2385 423 2348 2948 
2286 2318 3184 3005 2468 2470 2500 2933 2270 
2271 2298 2965 2331 2367 2369 2924 2213 2240 
2239 2966 2334 2343 2370 2497 3297 1760 352 
2994 2466 3297 2439 3157 3216 3298 2501 1928 
3257 1945 1931 3022 2530 3298 2565 2032 1813 
1845 1841 2031 2032 1813 2820 588 618 2748 
586 3364 156 487 3180 618 588 2748 2747 
2748 2783 618 2747 618 584 2748 586 2843 
1973 1972 1951 3166 1957 2839 2838 2833 2832 
1910 2830 2827 1899 1908 1895 3070 3035 3024 
3170 2480 2513 1456 2512 3023 2538 2539 3016 
3023 2632 2538 3016 3265 3241 2452 3168 3050 
3270 3065 3052 2772 2756 839 837 2772 2753 
839 2756 2798 2756 2753 2772 2798 2799 610 
2772 3356 1120 1123 246 3246 1864 1846 1844 
3246 2000 1864 1844 1846 1847 2028 3161 2874 
2862 2926 2871 3246 2000 1844 2026 3158 2160 
2159 2194 2028 1846 2027 1865 2027 1865 1846 
1864 2863 2857 2027 2000 2863 2916 2156 2857 
3241 2378 2414 2415 2455 334 1698 1699 2455 
2420 334 1699 2455 1698 334 333 2456 2420 
1699 2421 3040 2584 2614 2615 2455 2458 334 
2425 2455 2425 334 2420 2800 2789 569 2790 
2800 2789 609 569 2790 760 835 2773 2812 
2791 3082 2808 2800 2773 2789 2790 2800 609 
633 608 2800 2790 2809 2773 3609 263 710 
262 3210 1861 2032 2004 2858 3210 2032 2004 
2858 2009 2032 3210 3210 1979 1839 1955 2039 
2032 2009 2040 1840 2005 3210 2031 2004 1861 
1873 1860 2004 1860 1873 1977 3206 2530 2502 
2501 2469 1300 3216 2501 3583 3377 1642 2354 
3206 3157 3216 3195 3195 2364 2399 2365 3206 
3216 2469 3195 3067 2711 2729 2704 3272 3248 
3067 3077 3066 2778 3250 2794 3082 2809 2791 
3076 3134 3272 3081 3066 3070 2737 3145 2720 
3077 2769 3248 3075 3272 2795 2806 3250 3077 
3248 2776 3272 3072 2784 2728 2704 3067 2710 
3075 2770 2059 1851 2058 2030 2865 2081 2133 
2059 2865 2133 2163 2162 3598 2142 1168 2154 
2244 1244 1312 2277 2244 1167 1246 1244 2244 
2236 1167 1244 2244 1246 1167 2210 2115 2163 
790 2170 2115 711 2163 2116 2115 2116 2163 
2092 2115 2092 2163 2170 3131 3014 3041 3030 
3154 2995 3297 3003 2497 353 1748 2527 3034 
2597 2566 2565 2995 2440 3297 2467 3002 3022 
2530 3206 3201 2458 2482 2455 2640 3038 3048 
3174 3070 3145 2737 3073 2679 2656 405 2681 
2679 405 1689 2681 3053 2627 2623 2679 3053 
2724 2745 2679 2679 13 66 1727 2679 2623 
13 1727 3066 3250 3081 2794 2525 3030 3013 
3014 3402 280 721 279 2667 2691 2611 2612 
3402 279 1632 280 2400 1665 1666 2438 2400 
455 1665 2439 2400 2439 1665 2438 2930 2262 
2265 2234 2234 2209 874 2235 3345 1961 135 
1980 2894 3294 2110 2138 3345 1980 1802 1961 
2931 2235 2265 2266 2980 2977 2419 2984 2986 
2907 2988 3204 3085 3172 3212 2177 3478 3457 
692 272 3601 2634 732 3445 2382 1022 973 
972 2382 972 973 2345 3603 267 1162 268 
2182 2149 1162 2183 2182 2149 1241 1162 2220 
2313 2336 2344 2905 2186 2184 2220 2220 2313 
2184 2336 2931 3293 2264 3220 2878 2037 3215 
2869 2886 2113 3215 2089 2091 1632 390 389 
2878 2089 3215 2066 2114 1632 389 1633 2114 
1633 2171 2169 2878 3215 2089 2886 3220 3278 
2317 2941 3499 3391 1804 3380 2415 2414 1409 
2378 2415 2451 1352 2414 3199 3241 2379 2378 
3370 2677 504 3336 3119 3241 3153 3164 3370 
2677 580 2655 3152 2389 1730 441 3152 2426 
1730 2389 3152 442 1730 2426 3018 2973 2971 
2983 2983 2389 3152 2973 2237 199 198 1671 
2932 2268 2238 2237 2268 2237 2305 2267 2268 
2238 198 1670 2268 198 2238 2237 2268 2267 
198 2237 2268 2269 2238 1670 3087 2856 2836 
3084 3291 2955 2283 3205 3084 2871 2856 2851 
3329 78 546 521 2827 2826 1899 1895 2249 
2251 1017 967 3040 3299 2584 2615 3552 1927 
1190 216 3096 3255 3269 2294 2854 3150 2023 
2862 3056 2660 3016 3265 2998 3168 3051 3265 
3220 2294 2293 2263 2934 3225 2241 3202 2944 
2946 3290 3264 3485 2057 689 2056 2302 3225 
2934 2944 3485 2057 1812 306 3485 306 689 
2057 3484 240 1143 241 2659 2660 935 2632 
2685 2573 3023 2659 2659 939 937 2684 2930 
2140 2234 2209 2901 2168 2139 3294 2895 2901 
2139 3294 2894 2111 3294 2895 3033 2628 3044 
3054 3348 2824 484 43 3035 3316 2604 3046 
3312 2736 2715 3071 3017 2516 2544 2545 3355 
81 1813 1811 3080 2798 2768 2782 2715 1058 
2736 2716 3017 3009 2516 2517 2622 2742 2624 
3043 3034 2597 2629 2621 3118 3114 3130 3143 
2622 2653 344 2624 2622 2624 344 35 2580 
755 2667 830 2667 830 2639 2580 2667 830 
755 832 2667 832 755 2611 755 2580 2667 
2611 2479 1456 1406 2512 2480 1456 1498 1457 
2480 1498 2481 2454 2479 1407 1350 1406 3265 
3056 3170 3016 2479 1350 1407 2478 2949 3184 
2256 2937 3017 3009 2517 3289 3048 2638 2642 
3057 2981 2383 2384 2957 2484 1612 398 399 
2484 399 398 2483 2891 2876 3217 2892 2891 
2108 2135 3217 2891 3217 2135 2892 2891 2085 
2108 3217 2891 2876 2085 3217 2068 2044 2017 
2046 2044 1858 1842 1835 2863 2855 3175 3158 
3158 2194 2159 2193 2017 1801 2044 2048 2013 
2046 1994 2017 2009 3292 406 1724 2887 3185 
2207 2170 3196 1986 2008 3244 3196 2008 2037 
3244 2887 2170 2092 3185 3469 260 1146 1148 
3595 261 1148 3463 2456 2421 1699 397 2990 
3167 2422 2989 3017 3038 3009 3289 2909 2165 
3311 2137 3528 26 484 3083 2137 362 1707 
1708 2909 2137 3311 2893 2137 1707 362 2165 
2909 2921 2910 3311 2412 1291 1221 2413 2411 
2412 2447 2471 2471 863 865 795 2375 2376 
1223 2412 2411 718 795 2447 2953 2332 2333 
2932 3045 3242 2596 3034 2948 2937 2286 3184 
3011 2492 2522 2465 3027 2554 2520 2553 3018 
2583 2553 2552 3534 2618 1199 3398 3533 511 
1882 104 3533 104 114 511 3533 104 1882 
3363 3206 3154 3157 3195 2402 455 57 2400 
2978 2450 2414 2413 2264 988 932 934 2264 
932 988 2263 3333 3320 492 3083 2560 461 
462 3274 2495 2525 54 2496 2495 2466 54 
453 2341 2377 1354 2376 2311 1411 1413 1356 
3577 3404 749 2486 2311 1411 1462 1413 3404 
1649 1648 2486 3577 2486 1649 3404 3344 31 
1744 2654 3620 744 742 3493 3356 246 1123 
247 3049 3033 3305 3037 3234 14 482 1739 
3356 247 742 246 3234 482 14 2719 3090 
2849 3196 2860 3096 3269 3255 2970 2956 2316 
2317 3269 3196 2867 3151 3288 3249 1997 1995 
1971 3135 3097 3093 3092 2103 1427 1429 1372 
3450 1166 1168 270 2103 2105 1427 1372 3600 
3450 1166 2154 3506 3330 1883 514 2844 2852 
1947 2835 3200 3278 2204 2869 3088 3160 2853 
2854 2841 1995 2018 1996 3092 3192 2947 2955 
3092 3160 2872 3089 2185 2184 1235 2219 2185 
2219 1158 2189 2185 1235 1158 2219 2185 2150 
1307 1305 2185 1307 2150 2153 2185 1307 1237 
1305 2185 1237 1307 2153 2307 2150 2335 2315 
2307 2153 2150 2315 2307 2185 2150 2153 3584 
2115 1628 275 2341 1354 1411 1356 2341 1293 
1354 1356 2342 1410 1411 1354 2342 2377 1410 
1354 2140 388 1601 387 2140 387 1601 2139 
2140 1601 388 2113 2140 2139 1601 2113 2375 
2340 1293 2376 2411 2375 1223 2412 3015 3307 
2978 3199 3181 3199 3264 3307 2375 2471 2444 
2472 2375 2374 2339 2444 2471 925 865 863 
2471 865 925 2505 2945 2340 2310 2445 3223 
1555 353 1554 1554 2527 353 3223 3019 2562 
2527 3032 2527 1554 353 354 2497 353 2527 
3223 3019 3223 2562 2526 3003 2995 3297 2467 
2625 59 15 1746 2625 2590 59 2624 3576 
228 1167 229 59 2591 15 461 2591 2590 
59 2625 3144 1938 93 1980 1884 135 1961 
1980 3144 95 1884 93 1884 1961 3144 1980 
1937 3144 1961 1980 2932 2268 2269 2238 2932 
2268 2305 2333 2932 2305 2332 2333 2268 663 
197 198 2268 2267 663 198 2825 2708 1210 
2709 2710 1273 2732 2711 2709 2687 1210 2688 
2825 2771 2732 2787 2825 2709 2771 2708 3519 
3355 538 81 2825 1210 1208 2709 819 2825 
740 2751 2787 2751 819 2788 2411 793 2374 
2444 2375 2339 1225 2340 2375 1225 2339 2374 
2375 2340 1225 1293 2375 1225 1223 1293 2411 
1146 1225 2374 2375 1293 1223 2376 3338 165 
1134 1132 3511 1894 102 1890 3160 2021 2022 
3281 2881 2102 2100 3281 2872 3281 2071 2051 
2872 2071 3281 2881 3134 3282 3073 3312 3076 
2735 2734 2757 3134 3077 3282 3272 2812 3082 
2807 2808 3086 2693 2737 2720 3043 2742 2743 
2622 3348 2824 593 3083 3348 3083 484 2824 
2622 2653 2742 2654 2622 2742 2743 2654 3043 
2726 2742 2624 3468 2475 1142 1140 2475 720 
799 722 2013 1834 1990 2001 2013 1990 1994 
2014 2014 2855 2013 1990 2013 2014 1994 2046 
2044 2068 2017 2048 3175 2160 2159 3158 2013 
1835 1834 1858 2013 1858 1834 2001 2387 1729 
396 51 2387 2353 1729 2389 2387 396 1729 
2353 2387 2350 396 2353 2489 2959 2461 3001 
3178 3187 2391 2355 3497 3357 1120 3358 2970 
2955 3269 2346 2931 2265 2930 2942 3554 2459 
1647 3152 1801 2017 2044 1835 2044 1837 1842 
1810 3554 2459 746 3405 2494 1070 1105 1071 
2494 2523 1070 1071 2494 2493 1070 2523 2494 
1104 1070 2493 2494 2465 1104 2493 2700 329 
1689 1697 2700 1689 329 2725 2700 38 475 
1743 3372 2700 1743 2823 38 327 2725 329 
2823 1743 28 327 2725 38 2700 2823 2700 
1743 475 153 3372 153 1743 2700 2668 954 
1009 2641 3038 2550 2546 3026 3020 2543 2528 
2564 3282 2760 2775 2776 3022 2566 2565 3034 
3019 2498 3223 2526 2497 1748 353 352 2497 
1760 1748 352 3003 2497 3297 2994 3154 3157 
3022 3206 3206 2502 2438 2469 3353 151 592 
3334 2578 892 952 951 2578 952 892 2579 
3017 2517 2546 3289 3000 2990 3039 3009 2548 
2578 2547 892 2764 2721 558 2763 2764 600 
558 557 2764 558 600 2763 2658 1341 1399 
1398 2807 3082 2797 2808 2674 3279 3208 3062 
3205 2916 3221 2926 2249 1017 2251 2283 2855 
2045 2068 3258 3555 214 1196 3389 3090 3251 
3196 2849 3091 2862 3150 2854 2224 2250 966 
2249 3446 722 724 256 3445 2634 732 730 
3587 253 730 252 3445 730 732 252 3587 
253 1135 3419 3173 2960 2393 2974 2618 2672 
1271 2648 2696 2618 1199 2649 2696 2592 2672 
2618 2696 2672 1271 2618 2696 2618 2649 2592 
3089 2847 2838 3249 2880 2071 2099 2070 2868 
2885 3314 2877 3149 3303 2124 2102 2292 2942 
2291 2262 2859 2062 2876 3198 3421 1198 1197 
1897 3175 2159 2131 2130 3585 3421 1198 316 
3158 2926 2226 2193 2874 2053 2073 2873 3158 
2226 2194 2193 2874 2055 2862 2871 2864 3175 
2131 2057 3554 3405 1647 2459 3571 231 1161 
232 2864 2160 2131 3175 3013 2560 3274 3029 
3036 2631 2599 2605 3014 2497 2525 2527 2365 
2400 3206 3154 3030 3042 3043 3074 3013 2525 
3274 2560 2090 717 796 2205 3560 2611 757 
2643 2090 719 796 717 3427 1631 1630 2090 
3560 2643 1653 2611 3017 3289 2546 3038 2957 
2348 2347 2384 2493 2465 3141 3181 2982 2348 
2385 2958 3010 2521 2554 3028 3018 3027 2583 
3233 2398 3195 2399 2436 2962 2365 2364 3195 
2403 1476 1474 1426 2987 2442 2404 3262 2983 
2389 2426 3152 2722 611 603 2723 2722 2676 
611 2723 2722 2626 2676 2723 2722 650 611 
571 2822 2722 2652 571 2722 571 611 2676 
2722 2652 571 2676 2822 571 565 650 3382 
4 565 2822 2822 2696 565 2649 2573 2539 
1285 1348 3023 2573 2574 2539 2573 2572 1285 
2538 2573 2538 1285 2539 3279 2763 2721 2764 
3066 2764 2778 3279 3062 2657 3208 2674 2778 
2763 601 3279 3055 2630 2631 3208 3072 2728 
2784 2779 3072 2779 2703 2728 3072 2779 2784 
2795 3527 3356 740 2751 3037 3305 2606 2594 
3033 3049 3305 3054 3069 2798 2781 3080 3049 
2644 3234 3061 3080 3234 3061 3054 3623 247 
740 3527 3472 1125 1127 248 2786 2803 2802 
562 2787 825 887 3194 3194 2787 2786 2732 
2787 887 819 817 3519 3355 1813 2820 2469 
2436 2399 3195 2962 3157 3154 3195 2501 1298 
1361 2530 2530 1359 1298 1361 3022 2565 3298 
3242 3376 127 1821 106 3298 2499 3021 3242 
3351 155 437 43 3351 43 591 155 3265 
3016 2512 2511 3201 3229 2388 2972 2388 335 
2425 2420 2388 2383 335 2420 3351 43 437 
2701 3062 3060 2674 3279 3066 3208 2702 3279 
3078 3081 3271 3074 3066 3062 3208 3279 2778 
600 601 2763 3481 2789 569 186 2296 663 
197 2268 2296 1240 1161 1163 2296 2268 2333 
2305 2296 2305 2267 2268 2296 1163 2305 1240 
2296 1240 2305 2333 3358 3357 767 178 2894 
2901 2942 2931 3616 3504 533 1907 3096 2264 
3284 2294 3566 3432 715 277 3375 289 1644 
290 3503 3344 31 10 3344 2654 1744 3275 
3344 3275 585 2654 2686 2707 811 2662 2686 
813 811 2707 2130 2077 2026 3246 2863 2026 
3246 2130 2863 2156 2158 3246 3600 270 1166 
3450 2585 2557 1072 2556 2585 1072 1032 2556 
3015 3146 2978 2535 2709 1279 1273 2710 2709 
2688 1279 2710 2709 2710 2750 2688 2709 2750 
2710 2771 3478 3457 1170 2175 3371 170 558 
169 2980 3219 2419 2382 3375 289 741 2428 
2980 3147 3219 2970 2980 2382 2381 3219 3488 
215 1192 216 3488 215 679 1901 3488 1901 
1192 215 3487 2803 750 180 3487 180 562 
2803 3511 1890 102 3323 3511 1890 1788 1894 
2888 2097 2120 2121 2899 3192 3303 3149 2899 
2104 3303 3192 3341 1885 112 3179 3507 3341 
1885 536 2715 2735 1013 2714 2715 1013 2692 
2714 2715 1115 1058 1013 2715 1058 1115 2736 
2989 2456 2484 3167 3365 3207 575 3337 3517 
3374 1176 274 3201 2388 3229 2425 3601 252 
1133 3445 3199 2978 2377 3307 2699 2742 2677 
2653 2699 360 357 27 2699 357 360 2654 
2699 27 357 2653 2699 2653 357 2654 1886 
543 87 550 1886 90 551 550 1886 243 
90 550 2275 1432 1434 2273 2275 2273 1434 
2242 2275 1377 1434 1432 2275 1434 1377 2242 
2704 1275 1274 1204 2704 1274 1275 2683 2193 
909 908 843 2193 2159 908 2194 2193 908 
965 2226 2917 3221 2252 2927 2916 3221 2191 
2908 924 2225 864 862 2225 864 2205 3243 
3200 3243 2205 2204 3200 2252 3243 2941 3200 
3278 2869 2941 3454 2171 723 281 2009 3210 
2040 2032 2858 3210 1977 2848 2860 3292 3185 
2887 2858 1977 2004 2846 3513 3438 766 2755 
1996 1962 2020 1963 1996 1258 1327 1325 1996 
2020 1258 1325 1258 1962 1260 1184 3569 234 
1157 3532 1962 1258 1260 1996 2769 955 1113 
945 3272 2795 3250 3072 2769 1010 999 2759 
3077 3075 3248 3067 2769 955 999 1010 3077 
2760 2776 3248 3360 88 532 1980 1980 532 
135 88 1980 88 1802 1800 3345 88 135 
526 1928 1931 1829 3257 3093 2872 2881 2889 
3304 1929 1946 1930 1928 1915 1791 1931 2842 
1952 1965 3257 1928 1931 1945 1915 3304 1930 
1914 1929 3304 1902 1914 2826 3422 298 1652 
1653 1915 1195 1193 1269 1929 1197 1270 1914 
1915 1269 1193 1945 2226 2227 907 964 2226 
2194 907 2227 2226 908 907 2194 2878 2885 
2112 3314 2878 2112 2089 3314 2111 414 1591 
413 2111 2088 414 413 2319 421 422 1602 
2949 2288 3184 2319 3354 2677 61 2699 2319 
421 1600 2288 2319 1600 421 1602 3354 2699 
583 2677 3125 3170 3063 3128 3117 3262 3157 
2987 2441 1424 1472 1422 2511 1349 2538 2539 
2511 1350 1349 1406 2511 1406 1349 2512 2511 
2478 1350 2479 2511 1350 1406 2479 2511 2479 
1406 2512 3521 159 579 3370 3370 579 580 
159 3336 159 580 9 3521 3370 504 159 
1909 1770 471 1771 1909 1922 1770 1771 2006 
373 374 1573 3135 3251 3288 3196 2834 2841 
1943 1944 2849 2860 3244 3196 3198 3095 3288 
2867 1982 1774 1773 1956 3605 3444 1142 2447 
3568 3415 673 222 3568 222 1180 3415 3567 
3252 1151 2437 3567 2437 658 3252 3601 3445 
1133 2634 3601 3445 732 252 3031 3074 2741 
3059 3031 3043 2741 3074 3031 2740 2741 2722 
3390 286 1640 3367 3029 2650 2620 3059 3471 
3268 1645 290 3471 290 743 3268 3033 2628 
3305 2594 3337 2676 490 3207 3429 3308 671 
670 2531 1149 1228 1226 3495 3320 595 3322 
3144 1961 95 1924 2696 563 565 166 3531 
2649 1132 3338 3531 3338 565 2649 2121 2120 
1439 2097 2121 1438 1439 2120 2121 1438 1383 
1439 2121 1439 1383 2097 2121 2097 1383 2098 
2121 2098 1383 2122 3206 2469 2399 3195 3206 
2438 2399 2469 2469 2399 2436 2437 3206 2501 
3216 3157 2987 2406 3216 3195 3513 2755 438 
3438 3512 2821 709 2116 3512 2116 1627 2821 
3512 2116 709 3466 3091 2873 2862 2926 2857 
2156 2157 2908 3200 2860 3236 2879 2987 3216 
2406 2405 3124 3154 2995 3117 2398 660 195 
56 2398 56 195 2364 2573 2685 2604 2603 
2659 877 937 939 3016 2539 2540 2512 2848 
2858 3292 2860 3361 3328 39 2678 3089 3288 
3251 2838 3555 3453 1196 85 2887 2207 3185 
2879 3361 2678 589 3328 2337 2278 2373 789 
3607 3478 694 272 2278 2337 2373 2309 2309 
1150 1227 1229 2309 1227 1150 2337 2787 2803 
3194 2786 3518 7 1134 165 3518 165 177 
7 2787 2732 2788 2786 2787 2803 825 3194 
3077 2776 3282 3272 3194 2804 2810 2802 3067 
2711 2710 3194 3045 2629 2596 2595 2397 1101 
2362 2396 2397 2362 1101 2395 2397 1101 2434 
2395 2915 2372 2336 2977 3403 668 669 226 
2878 2066 2037 2036 3097 2980 3147 3100 3499 
3391 687 303 3200 3196 3244 2860 2233 868 
930 928 3278 2206 3220 2233 3386 311 1818 
2079 3497 176 555 2752 3330 1978 1805 2010 
2916 2191 2156 2908 2843 1971 1972 2853 2829 
1950 2834 1949 3531 165 565 3338 3559 2090 
1630 3186 3017 2546 3026 3038 3609 263 1152 
3437 3039 2579 2607 2578 3624 3620 1120 3493 
3624 3620 744 246 3365 3337 29 3207 2050 
1386 1441 1385 1441 1386 2019 1442 1386 1441 
2019 2050 1967 1336 1968 1946 1967 1267 1334 
1336 1967 1336 1334 1968 1967 1265 1334 1267 
1967 1966 1265 1267 3064 3065 2690 2693 3045 
2630 2629 2598 3035 2574 3316 2575 3126 3122 
3048 3057 1929 1945 1946 1269 1929 1195 1913 
1915 1929 1270 1269 1337 1929 1337 1269 1946 
1901 1927 1192 1916 1889 130 684 1892 1901 
130 1889 1892 130 1901 1889 213 1901 1896 
213 680 1901 213 1896 1889 1901 1896 212 
1900 1901 212 679 1900 2659 2572 875 807 
807 2603 2572 2602 2685 2572 807 2603 3414 
297 1651 1652 3470 2411 718 716 3589 260 
716 259 3470 716 718 259 2785 597 604 
2801 2785 2802 604 596 2785 604 2802 2801 
2690 2671 1094 1111 2690 2695 2671 1111 3481 
186 760 2789 3481 186 569 185 3498 81 
1811 513 3426 2069 1181 325 3481 185 760 
186 3508 2700 589 2678 2586 1220 2648 2618 
2586 1220 1143 2619 3390 3367 735 286 2586 
1143 2558 2619 3389 683 682 214 3542 3389 
683 1892 2560 1745 462 461 3555 1892 1196 
3453 2560 355 1745 2589 3019 3032 2527 3014 
2965 2367 3285 2403 2954 2965 2331 3213 2368 
1518 1520 2334 2368 1478 1520 1518 3618 101 
705 76 2368 1476 1478 1518 3360 88 1800 
79 2009 1583 406 2039 2819 433 548 100 
3192 2881 2102 3149 2032 2039 2009 2858 3029 
3030 3013 2560 2836 1954 1935 2833 2169 802 
723 2171 2886 3220 3293 2931 2931 2264 3293 
2235 3141 3260 2493 2996 3030 2590 2589 2560 
3502 3500 530 89 2909 2920 2921 2230 2258 
2921 2230 2231 3203 1675 1676 2094 3159 2898 
3203 2870 3159 2086 3203 2109 3332 1886 1783 
109 3332 109 544 1886 3531 2696 1132 2649 
3098 2913 3172 3085 3591 3374 1174 2119 3102 
2961 2960 2974 3159 2870 2904 2898 3098 2891 
2876 3159 2890 2282 2314 2315 2890 3148 2150 
2905 2968 2890 2905 3148 3457 2118 1172 2175 
2175 1172 1249 2118 692 2118 774 770 2118 
692 774 2175 2338 788 789 2278 2338 2313 
2245 2246 2338 787 788 2245 2338 2313 787 
2245 2338 857 788 787 2338 2313 857 787 
2114 2169 1632 1633 2114 389 1632 2091 2114 
2091 1632 2169 3035 2604 3316 2574 3319 8 
190 766 3036 2576 2599 3024 3439 184 567 
183 2481 2998 2480 2454 3056 3163 2661 3058 
3024 2542 2541 2576 2988 2395 2434 2433 3098 
2900 2892 2891 3478 2175 692 3457 2433 1066 
2434 2408 2433 2434 1066 2395 3376 106 123 
127 2949 2971 2319 2958 2481 3006 2998 2454 
3117 3127 3005 3156 2504 797 799 2475 2504 
799 797 867 2504 2533 799 867 2504 865 
927 867 2504 927 865 2505 2411 2374 1225 
2375 2411 1225 1223 2375 2796 2809 3076 2800 
2774 902 2792 2775 2774 902 833 2792 2774 
833 2791 2792 2774 2775 961 902 2774 961 
2775 2757 1888 1886 243 1889 2815 527 244 
2813 3500 3339 1200 2815 1888 1781 129 1886 
3494 78 1200 3329 2813 87 540 529 2815 
1785 1782 1888 1892 684 682 130 1888 1886 
87 550 1888 87 92 550 1887 1783 523 
1784 3327 1887 545 523 1887 1783 1784 1824 
1887 1824 1784 1893 1887 118 545 523 3359 
109 118 523 3359 109 1783 1886 2198 2897 
2918 2919 2891 2164 2134 2897 2925 2896 2914 
2179 2521 2520 1050 2491 2521 1050 2520 2554 
3502 3500 1200 2815 3098 2866 2904 3159 2912 
3176 2213 2239 3376 106 1821 2083 3117 3154 
3157 3124 3002 2466 2439 3252 3497 3357 555 
178 2868 2007 2035 2036 2886 3293 2235 2931 
3358 178 555 3357 3096 3220 2264 2294 2956 
2970 3269 3096 2955 2970 3269 2956 3202 2181 
2188 2218 3204 3264 2996 3141 2993 2432 2465 
3260 2985 2396 2393 3260 3517 274 687 3374 
3522 279 1631 3402 2423 2385 2971 2982 3517 
274 1176 74 3517 74 687 274 3516 77 
508 516 2009 2040 1583 2039 2009 100 1583 
2040 2865 2163 2092 2887 3512 3466 1627 2116 
3512 3466 709 110 3358 179 555 178 2930 
2265 2235 2234 2877 2065 2087 2088 3587 252 
730 3445 2877 2088 3314 2065 3079 2796 2767 
2780 2798 639 634 649 2798 2781 639 649 
2798 2781 649 2799 2798 649 610 2799 3012 
3011 3028 2555 3199 2378 3222 2342 2946 3199 
3222 2311 3364 2748 487 22 3112 2946 3199 
2966 3119 3112 3199 2966 3010 3011 2521 3028 
3012 3141 2465 3181 3121 2998 3156 3168 3225 
2302 2934 2274 3164 2617 2616 3299 3164 2615 
2617 3299 1928 1829 1827 1917 1928 1917 1827 
1913 1928 1913 1827 1915 1929 1915 1928 1945 
3560 3422 757 2611 2836 2828 2827 3304 1939 
1921 470 1771 1939 1940 1772 1957 1939 1772 
469 1773 1939 1957 1772 1773 1939 1773 469 
1956 1939 1957 1773 1956 2847 1956 1981 1982 
3338 1132 1134 2649 3619 3338 1134 2649 1898 
1825 1893 1894 2830 1924 1936 1919 1898 1894 
1904 1828 1898 1828 1825 1894 2925 3273 2215 
2914 3391 3380 686 2069 3202 2177 2181 2218 
3462 1127 1129 249 2976 2964 2370 2368 3168 
3239 2416 2417 2794 2780 644 2797 2794 642 
644 2780 2738 3282 2736 3312 2801 3272 2810 
3067 2794 627 626 642 2794 626 627 2778 
3030 2589 2527 2560 3030 2527 2589 3032 3034 
3002 2588 3013 3022 3034 2565 3242 2865 2162 
2163 2887 2865 2059 2030 2061 2437 194 2399 
2436 2437 2399 194 2438 3002 3206 2439 2994 
2469 2438 2399 2437 2469 2437 2502 2438 3002 
2994 3022 3206 3447 269 1164 1166 3447 269 
698 700 2900 2199 2165 3218 2900 3218 2165 
2136 1949 1262 1329 1970 1262 1925 1264 1188 
1925 1262 1264 1949 1942 1925 1262 1188 2535 
2534 927 2570 2535 981 983 927 2535 983 
981 2536 2535 981 927 2505 3307 2506 2505 
2472 2341 2340 2376 1293 2341 1293 1356 2340 
3381 23 55 32 3090 2840 3251 2849 3609 
262 1152 263 2887 2225 2207 2879 1891 1896 
213 1889 1891 213 681 1889 1891 1898 1896 
1897 1891 1897 1893 1898 1891 1897 1896 1889 
1891 1889 1893 1897 2029 1866 2003 2004 2029 
2030 1867 2004 2916 2190 2191 3221 2845 1975 
1976 2002 3498 3342 539 2005 3342 119 549 
2031 2304 1312 1310 2277 2304 1310 2305 2277 
2304 2305 1310 2332 2912 2903 3176 2919 2932 
2332 2305 2304 2206 868 866 798 2206 798 
866 2204 3611 2755 766 3490 3154 2427 2440 
2995 3117 2401 3201 2963 3164 3299 2557 3028 
3249 2019 2051 2050 3012 3181 2523 3153 3015 
3181 3199 3153 3153 2523 2556 2536 3572 3403 
668 2172 2996 2936 2446 2945 2370 1537 1538 
2343 2370 1537 1516 1518 3156 2443 3239 2417 
2370 2334 2343 1538 2370 1538 1518 2334 3431 
2789 570 2772 3431 2789 762 186 3431 186 
570 2789 3539 3430 1150 2278 2615 1109 1092 
2645 2615 1092 1109 1108 2615 1108 1109 2617 
2998 2480 2512 3170 3128 3165 3006 3024 3206 
2399 2438 2400 3093 3249 2847 3089 3088 3150 
3160 2854 1939 470 1682 469 1939 469 1682 
1943 1943 1682 1921 1926 1682 1943 1921 1939 
2168 2203 386 2202 2168 386 1605 2202 2469 
1230 2502 2437 2469 2436 1153 2437 2469 1153 
1230 2437 3142 3126 3312 3086 3577 3410 1649 
3155 3067 2784 2729 2785 3078 3081 2780 3271 
3272 2801 3072 3067 3001 2489 2490 2461 2489 
948 889 949 2489 2519 948 949 2489 2519 
949 2518 2489 949 889 2518 3410 1650 1649 
3155 3547 3155 1650 3410 3415 672 673 222 
2992 3173 3227 2431 3348 43 593 2824 3551 
1915 1195 318 3076 2800 2809 2773 2790 184 
758 185 2790 185 568 184 3481 2790 569 
2789 2790 185 758 760 2701 437 46 43 
2824 331 46 2701 2824 43 591 2701 3119 
3168 3241 3164 2978 2414 2377 2413 3121 3164 
3040 3052 2415 1409 1459 2378 3444 1142 1144 
258 3407 574 572 188 572 612 2754 2799 
3544 3388 765 2754 3525 187 764 188 3529 
9 61 2677 2753 2799 764 2754 2799 2753 
764 2772 3067 2710 2770 3194 3546 3417 1182 
1987 2787 2788 825 2803 2787 825 819 887 
2787 819 825 2788 3076 2798 2756 3080 2800 
2782 634 2798 2800 634 609 2798 2800 634 
633 609 2800 633 634 2782 1892 1889 1897 
1888 1889 1892 1897 1903 1897 1886 1781 1888 
1886 1897 1781 1824 2813 1888 92 1892 3339 
85 1200 1196 3030 3032 3042 3074 3029 3059 
3074 3031 3276 1886 544 118 3109 2965 3262 
2975 3164 3040 2615 3299 3348 3083 593 595 
3086 3312 3064 3126 3337 3207 575 2676 3312 
3073 2738 3282 2875 2030 2004 2858 2027 1874 
1865 1864 2027 1865 1874 2002 2027 2028 1865 
2002 3084 2002 2845 2857 3611 3319 766 8 
3553 2081 703 3401 2668 1011 1009 956 3412 
3253 655 2558 2668 956 1009 954 2877 3314 
2088 2885 2065 365 1710 1711 2065 1710 365 
2087 2065 1711 1710 2088 2065 2088 1710 2087 
2956 3205 2283 2955 3555 3389 682 214 2884 
2194 2227 2195 3422 1653 1652 2611 3304 1917 
1918 1934 3493 3356 1120 3492 2922 2323 3178 
2951 2901 2167 2202 2168 2484 2999 3009 3008 
3026 2550 2580 2639 3026 2580 2550 2581 3126 
3174 3057 3048 3595 3469 714 2374 2826 1898 
1905 1902 1902 1896 2826 1898 2827 1898 1905 
2826 3304 2835 1946 2852 2827 1894 1895 1908 
2836 1934 1952 3304 2836 1918 1934 3304 2836 
2827 1918 3304 3122 3009 3039 2989 3387 703 
701 313 3017 3037 3174 3026 3017 3026 3174 
3038 3552 216 678 1927 3009 3017 3126 3048 
3233 2583 2552 2582 2982 2989 2421 2981 3624 
246 1120 3620 2976 3239 3285 2370 3318 20 
440 2739 2664 2707 3046 2730 3318 2739 478 
20 2942 2291 2203 2922 2992 3227 2463 2431 
2942 2265 2262 2292 2942 2262 2265 2930 2942 
2295 2265 2292 2942 2265 2295 2266 2931 2266 
2265 2942 2901 2168 2203 2930 3393 1199 1138 
18 2291 2942 2203 2262 3491 3334 594 151 
3011 2492 2463 2491 2992 2464 2432 2431 3011 
2521 2492 2491 3491 3334 481 2823 3484 241 
654 240 3501 536 111 3341 3098 3172 2914 
2904 2915 2408 2372 2977 3119 3156 3168 3121 
3199 2342 2377 2378 2996 2448 2493 2474 2913 
3202 2177 3085 3624 3357 1120 3621 2915 2344 
2380 2967 3538 3415 672 3238 3025 2564 2543 
3020 3132 3037 3174 3025 3312 3071 3282 2736 
3582 3429 1175 224 3013 2496 2495 2466 3320 
595 594 3083 3512 302 709 3368 3466 110 
711 709 3466 110 1627 275 3453 1892 244 
682 3453 1892 1196 2815 2914 2179 2178 2215 
3154 2366 2365 2400 3154 2440 2427 2402 3468 
1140 1142 257 2998 3265 2512 2479 2416 2452 
3241 3168 3107 2937 3108 3105 2966 3156 3239 
3168 3010 3028 2554 3027 3015 2506 2505 3307 
3115 3018 3027 3110 3591 274 1174 3374 3233 
2614 2583 2613 3107 3108 2937 3110 2958 2948 
3184 2937 3130 3119 3028 3115 3086 3070 3036 
3128 3109 2950 2963 3114 3120 3202 3204 3264 
2945 2445 2410 2446 2945 2446 2410 2936 2945 
2410 2310 2936 2445 2410 2310 2945 2410 2445 
2310 2409 3582 2093 670 3440 3159 2085 2108 
2891 2935 2243 2242 2275 2898 2094 2123 2146 
3322 595 594 3320 2897 2904 2896 3159 3053 
2656 2766 3054 3471 290 1645 291 3337 3207 
490 29 3471 291 743 290 3581 225 1173 
226 3368 1627 122 2821 2937 2929 2229 2256 
2973 2460 2488 2518 3001 2519 2490 2489 3010 
3001 2519 2490 3602 3448 700 2182 2902 2173 
2217 2244 3618 76 536 101 2932 2240 2238 
2269 2935 2925 2242 2216 3137 3107 2928 2939 
3596 248 738 3472 3597 3462 736 2708 3430 
262 710 712 3621 3357 1120 3497 3352 52 
483 503 3352 52 766 245 3045 2630 2657 
2629 3055 2599 2630 2598 3062 3045 2621 3041 
2498 3019 3223 3003 3003 2995 2467 2498 3490 
2755 160 503 3177 2302 2273 2934 2939 2259 
2255 3232 2924 3232 2259 2939 3575 2267 665 
3461 2924 3232 2239 2259 3527 1125 1123 2751 
3137 2928 3232 2939 3574 2549 753 2580 3137 
2928 2919 3232 3137 3177 2954 2935 3462 736 
738 249 2907 3202 2222 3204 3202 2913 2177 
2214 2940 2355 3187 3178 3354 2699 61 34 
3018 2973 2519 3001 2992 2463 3227 2991 3018 
3001 2519 3010 3565 3522 1631 2091 3565 2091 
719 3522 2949 2937 2256 2929 2949 2256 2288 
2938 2949 2256 2938 2929 2909 2200 2199 2230 
2909 2921 2200 2230 2909 2165 2199 2200 2900 
2135 3218 2136 2900 2136 2165 2137 3140 3111 
3102 2909 3140 3102 3101 2909 3501 3331 111 
536 2921 2258 2230 2929 3351 2701 591 43 
3590 3468 1140 2475 3056 3063 3016 2660 3017 
3025 3126 3174 3510 12 23 177 3071 2736 
2735 3282 3596 2708 1127 2825 3586 236 664 
235 3586 235 1153 236 3586 235 664 2436 
2861 2072 2011 3247 2859 2880 3247 2850 2898 
2146 2145 2179 3111 2909 2921 3102 3012 3011 
2465 2993 2985 2432 2393 3173 2917 2875 2161 
2908 2830 2828 1910 1899 3093 3288 2859 3198 
2847 3093 3288 2859 2956 2283 2284 2316 3091 
2871 2916 2926 2916 2193 2926 3158 2863 2000 
2026 3175 2855 1974 2000 2001 3374 690 687 
2119 3123 3114 3122 3127 3564 2459 747 2486 
2888 2121 2120 3172 2948 2928 2286 2937 3225 
2934 2241 2274 3328 589 587 2678 2833 2840 
3171 2832 3084 1974 1952 1975 2838 1957 1956 
1982 2838 1982 1956 2847 3135 3288 3251 3089 
3095 2877 3198 3099 3412 2558 1145 3253 3124 
2995 3003 3007 3007 3019 2498 3003 3129 3007 
3020 3132 3007 3025 3008 2515 3007 3003 2498 
2995 3054 3071 3044 3033 2890 2314 2282 2127 
2968 2905 2104 3148 3451 2652 571 2822 3330 
2010 531 1978 2150 2890 2153 2127 2315 2968 
2969 2345 2905 2150 2335 2184 3477 728 726 
2571 3341 3179 112 2821 3136 2889 3149 3085 
3136 3149 3192 3100 3192 2074 2104 2075 3373 
162 577 578 2915 2988 2408 2977 3600 2154 
1166 2155 2989 2484 2456 2999 3600 2155 698 
2154 3600 2155 1166 3447 3108 2993 3011 3112 
2929 3111 3105 2920 2957 2347 2383 2384 2972 
2351 2347 2320 3050 2613 2614 3233 3484 2586 
654 241 3108 2991 2929 2949 3483 181 752 
182 3178 2356 2357 2324 3173 2392 2432 2393 
2432 2993 2985 3260 2465 2493 3141 3260 3476 
2721 1122 170 2900 2165 2199 2909 3130 3108 
3011 3112 2934 2944 3138 3139 3341 2821 705 
3179 3540 3442 1158 2189 2881 2124 2100 2102 
3096 2294 3269 3220 3375 2428 1644 289 3113 
3102 2952 2894 2974 2397 2396 2985 3141 2465 
3260 2993 2960 2357 3178 3173 2974 2396 2393 
2985 3141 3106 3112 2993 2974 2393 2396 2361 
3101 2893 2892 2900 2974 2960 2393 2361 2966 
2312 2343 2334 3012 2465 2522 2494 3165 2567 
2542 2598 3165 2567 2532 2542 3123 3126 2999 
3007 3086 3073 3036 3070 3045 2629 2621 3034 
3007 2999 2482 2483 3036 2598 3165 3024 2836 
1952 2842 3304 2829 2828 1909 2831 2834 1939 
1943 2838 3589 2411 716 2374 3589 2411 1146 
3470 2829 1949 1926 1911 2852 1968 2854 2844 
2836 1954 2846 2845 2867 3196 2007 2868 2849 
3214 1984 2860 2836 2846 1954 2833 3609 262 
710 3430 2851 1991 1992 2842 2853 2831 2838 
2839 3097 2955 2970 2980 2829 1932 1933 1950 
3077 2760 2759 3073 3282 2757 2758 2735 3073 
3055 3047 3077 3024 2514 3165 3006 3128 3006 
3165 3127 3617 2069 1179 3380 3021 3242 3034 
3022 3125 3127 3006 3128 3007 2498 2482 2995 
3036 3055 2631 3047 3605 258 1142 3444 3021 
3004 2499 3157 3468 720 722 257 3571 2296 
662 3228 3455 1161 1159 232 3497 178 555 
176 3045 2596 2629 3034 3117 3157 3154 2962 
3571 2296 1161 3458 1961 1884 3144 95 3024 
2541 2514 3170 2814 116 542 90 3584 2115 
713 2170 2814 90 681 116 2814 681 90 
1889 2814 1886 1889 90 2814 542 1886 90 
2814 1893 1886 1887 2927 2941 2284 2252 2869 
3196 3244 3200 3453 2815 244 1892 2956 3269 
3220 3096 2916 2190 3221 2224 3093 2847 3288 
3089 3196 3251 1983 2849 2854 1998 1973 1993 
3455 3228 1159 1161 2987 2406 3195 2953 3454 
280 1633 281 3124 3157 3022 3154 3076 2734 
2756 2757 3076 2756 2734 3080 3086 3312 2716 
3064 3086 3073 2716 3312 3071 2715 2735 2736 
3134 3073 3282 3077 3090 2849 2848 2840 2849 
1986 3244 1984 2865 2030 2058 2875 2865 2887 
2858 2875 3135 3251 3090 3088 2865 2875 2162 
2887 3590 3446 1140 256 3612 81 119 3355 
3143 3130 3110 3115 2972 2957 2347 2383 2924 
2923 2912 2954 2890 2315 2335 2150 3598 271 
1168 3434 2346 2980 3245 2381 2980 2955 2947 
3192 2907 2906 2152 3149 3090 2857 2846 2917 
2916 2224 3221 2926 3502 78 530 3329 2996 
2435 2979 2986 3140 3173 2985 2974 3120 3204 
2907 2986 2993 2985 3260 3141 2986 2418 2434 
2435 3141 2985 3260 2435 3363 512 1882 1813 
3181 3307 3264 2996 2901 2202 2203 2168 2922 
2901 2203 2942 3550 312 701 2080 3548 3396 
1787 1902 3566 3432 1629 3186 2922 2202 2203 
2901 3178 2922 2951 2910 2922 2910 2942 2951 
2930 2942 2203 2901 2942 2930 2203 2262 3173 
2358 2393 2960 3111 3178 3173 3102 3023 2573 
2539 2538 3378 30 763 301 3023 2538 2632 
2573 3378 30 1657 438 3265 2451 2452 3241 
3071 3282 3076 3079 1949 1942 2834 1926 2834 
2843 2829 2831 3249 2019 2021 2051 3119 3241 
3168 2966 3119 3168 3156 2966 3143 3107 3118 
3137 3111 2929 3105 3108 3164 3040 3299 3028 
3117 3262 2975 3109 3118 3109 2965 2976 3196 
2869 3244 2037 3401 2821 703 705 2868 2035 
3314 2036 3322 481 480 3320 3135 3251 3196 
3090 2818 1960 2010 1955 2818 1955 2010 1979 
2818 1960 1719 1720 2818 1719 1960 1985 3013 
3034 3014 3041 3013 3041 2588 3034 2400 2365 
3206 2399 3013 2588 2559 3002 3430 262 1150 
1152 3002 2531 2566 2559 3002 2439 2466 2994 
3352 245 483 52 3131 3034 3045 3041 3513 
245 438 3352 3490 2755 766 3394 2979 3204 
2996 2986 3137 3103 2935 2912 3104 2891 2897 
2918 3391 2069 1804 3380 3111 2991 2929 3108 
3112 3153 3181 3012 3012 2522 2465 3011 3104 
2900 2920 2909 2996 2446 3307 2945 3307 2996 
2945 3264 3307 2472 2445 2473 3199 2378 2377 
2978 3199 3119 3241 3153 3153 2556 2523 2524 
3196 1983 2008 1986 3569 234 660 233 2830 
2832 1910 2828 1936 2833 1941 1924 1924 1936 
2833 2830 2830 2836 1935 2833 1960 1936 1941 
1961 1936 1960 1941 2837 3610 3320 594 2725 
3609 3430 1152 262 3588 3444 718 2447 1955 
1985 1960 2837 1985 1955 1960 2818 2875 2030 
2058 2029 2875 2132 2162 2161 2865 2875 2058 
2132 2863 2158 2156 2190 3420 299 1653 1654 
3084 2000 2002 2857 2863 2193 2158 2190 2916 
2190 2156 2191 3084 2863 2857 2916 2851 1990 
1965 1974 2160 3158 2195 2194 2927 2284 2251 
2252 3562 3420 759 2643 3175 2131 2056 2130 
3012 2523 2524 3153 3141 3112 3012 2993 2524 
3012 2557 2555 3012 2557 3028 3153 3119 3153 
3028 3164 2557 3012 3028 2555 3141 3264 2996 
3181 3119 3028 3040 3164 3491 2823 594 3334 
3613 3350 1179 3499 2842 1992 1966 1991 3560 
2611 1653 3422 2851 1991 2014 2015 1990 1974 
2855 2001 3421 316 1197 1198 2842 2852 1945 
1967 3585 316 1785 3421 3029 3043 2591 3031 
3030 3032 2589 3042 3062 3183 3208 3055 3074 
3043 2746 3042 3060 3041 2651 3059 3060 3059 
3030 3041 3060 3041 2621 2651 3060 2675 2674 
3279 3386 311 697 310 3499 303 1804 3391 
2886 2112 2113 2089 2878 2895 2885 3220 2878 
2089 2112 2886 3321 546 530 133 3498 2005 
539 3340 3321 133 521 546 2886 2140 2113 
2895 2880 3249 2071 2070 2859 2880 2850 3249 
3520 3366 1796 96 3089 2853 2872 3249 3149 
2181 3212 2147 3249 2071 2070 2050 2880 3172 
2120 2889 3332 109 1783 520 3097 2956 2970 
2955 2850 2020 1963 2841 2859 2888 3247 2880 
3495 3322 480 3320 3348 595 593 152 3083 
595 623 593 3569 3532 660 234 2824 2766 
638 2745 2824 638 623 2745 2824 623 2725 
2745 2824 2745 2725 2681 2824 2681 2766 2745 
3125 3122 3127 3128 3058 2694 2671 3065 3056 
3063 3163 3058 3369 3315 656 3253 3608 265 
707 264 3052 3270 3065 3058 3052 3270 2647 
2645 3052 2647 3270 3058 3050 3270 2638 3057 
3006 2454 2481 3005 3052 2645 2647 2617 3551 
1902 1195 1913 2949 3001 2991 2959 3452 237 
1151 1149 2867 2868 2065 2877 2878 2112 2885 
2895 3196 2037 2008 2036 3526 162 67 3373 
3514 3349 1817 2820 3109 2976 3262 2965 3012 
2555 2522 3011 3164 3168 3051 3121 3012 2522 
2524 2494 3012 2524 2522 2555 3622 303 326 
3499 2952 2942 2266 2931 3374 274 1174 1176 
3425 309 1815 2076 3140 3101 3102 3120 3483 
182 564 181 3136 3113 3097 3095 3557 3419 
728 2602 2952 2960 2327 2326 3557 3419 1136 
253 3097 3192 2955 2980 2883 2104 2968 2947 
3288 2847 1982 2838 3374 274 687 690 3102 
2952 2951 2960 3400 300 761 759 2980 3219 
2381 2346 3116 3147 2961 2984 3476 171 557 
170 3618 76 705 3331 3476 170 1122 171 
3476 170 557 2721 3272 2801 2806 2795 3391 
2069 686 2095 3487 181 562 180 3100 3149 
3085 3136 3202 2222 2223 2188 3486 285 731 
284 2915 2380 2372 2408 2907 3204 2906 2988 
2880 2888 2097 2120 3135 3089 3251 3088 3093 
2880 2889 3094 3288 2847 1981 1982 2880 2071 
3249 2872 2854 1973 1999 3160 2880 2889 2071 
2872 2977 2407 2372 2371 3494 2815 1200 315 
2980 2382 2419 2969 2977 2905 2371 2336 2977 
2371 2372 2336 2977 2969 2407 2371 3119 3199 
3241 2966 3608 265 1156 3436 3438 30 438 
245 3040 2614 2645 2615 3052 3051 2617 2646 
3114 2981 2957 2972 2943 2953 2269 2932 3123 
2972 2981 3114 2998 3005 2454 3006 2966 2370 
2343 3239 3110 2949 2971 3001 3039 2607 2610 
2638 3048 2610 2642 2638 3564 2486 1648 2459 
3373 578 577 3207 2950 2948 2320 2957 3130 
3112 3119 3118 3143 2939 2948 3107 3137 2965 
3177 3118 3526 3373 578 162 2966 2370 3239 
2976 3005 2468 3262 3156 3376 2083 123 106 
3460 2210 1167 1169 2948 2287 2286 2255 2948 
2255 2286 2928 2551 2578 2983 3233 3233 2989 
2982 3122 3110 3010 3011 3108 3018 3010 2520 
3027 3115 2982 2957 2981 3018 2520 2553 3027 
2982 3233 2971 2990 3040 2614 2584 2583 3398 
2618 653 652 3534 2649 652 3393 3115 2982 
2981 3122 3233 3122 3040 3050 3122 3048 3057 
3050 3174 3071 3312 2715 3412 2558 655 240 
3133 3312 3071 3282 3132 3174 3312 3126 3077 
3282 2760 3073 2775 2758 3282 2757 3066 3183 
3208 3062 3433 3186 1628 2170 3047 2605 2631 
3036 2631 3208 3183 3055 3183 3075 3047 3077 
3066 3279 3081 3062 3125 3063 3058 3128 2972 
2351 3229 2388 3397 667 668 227 3549 3397 
667 2172 3572 226 668 3403 3052 2617 2647 
2646 3052 2646 2647 3058 2949 2959 2350 2971 
2971 2387 2350 2386 2971 2386 2350 2349 3115 
3110 2971 3018 2971 2350 2387 2973 2971 2385 
2386 2349 2980 2346 3245 2955 3329 530 546 
78 3328 3275 39 2678 3555 3389 1196 1892 
3382 12 1766 2649 3541 263 708 3437 3545 
3377 739 2354 3241 2451 2452 2415 3265 2479 
2478 2511 3575 3459 1165 229 3459 2236 666 
665 3117 2987 2975 3262 3459 2236 1165 1167 
3576 2210 1167 3460 3005 3262 3117 3156 2883 
2054 2074 2947 3520 3366 131 1938 3520 1938 
1796 3366 2850 2050 2018 3249 3092 3150 3160 
3088 2872 2021 2051 3249 3465 2208 1634 2171 
2917 2875 2858 2887 3386 310 1818 311 3360 
79 532 88 3563 224 1177 3429 3579 3452 
657 3252 3385 2436 1155 2398 3196 2869 2037 
2036 3128 3063 3058 3070 3070 3035 2705 3046 
3024 3170 2514 3006 3070 3065 2694 3058 3070 
2705 2694 2720 3275 2654 17 2678 3608 3436 
707 265 3265 2512 2479 2511 3128 3070 3170 
3063 3056 2633 2661 2660 3010 2519 2520 2490 
3010 2520 2491 2490 3001 2490 2462 2461 3001 
2461 2462 2991 3491 2823 481 491 2446 2996 
3307 2473 3307 2445 2340 2945 3015 2506 2536 
2535 2917 2225 2192 2197 2917 2858 2846 2848 
2917 2875 2908 2857 2836 2854 2856 3087 2887 
2162 2197 2875 1957 1939 2839 2838 3089 2838 
2839 2853 2907 2152 2181 3149 3604 2183 704 
3443 3604 3443 1160 2183 3604 3443 704 267 
3604 267 1160 3443 3135 3196 3288 2867 3603 
2182 1162 2183 3140 3173 2974 2960 3120 2974 
3116 3102 3140 2974 2985 3120 3140 2960 2974 
3102 2992 3173 2432 2993 3260 2996 2435 2448 
2992 2431 2432 3173 3554 3405 746 293 3420 
1654 1653 2643 2871 2025 2016 2047 3175 2056 
2026 2130 2863 3175 2159 3158 3554 293 1647 
3405 2855 2014 2013 2046 3552 1912 1190 1927 
2874 3158 2226 2884 3562 2643 1654 3420 3570 
233 1159 3456 3018 2983 2971 3233 3600 3447 
698 2155 2983 2387 2389 2973 3600 3447 1166 
269 2983 2971 2387 2973 2983 2423 2971 2990 
2423 2424 2971 2386 2983 2389 2424 2426 3115 
2981 3114 3122 2983 2990 2971 3233 3102 2909 
2910 2893 3586 2436 1153 235 3104 2900 3101 
3098 2889 3212 2120 2099 3586 2436 664 2437 
3483 182 752 3231 3141 3264 3112 3106 3140 
3111 3173 3102 2996 3260 2435 3141 3418 1188 
1190 1925 3568 221 673 3417 3102 3173 2960 
3178 2993 2465 2432 2464 3562 2643 759 2670 
3562 2670 1654 2643 3562 2670 759 3400 3562 
3400 1654 2670 2849 2860 2848 3214 3179 2821 
122 537 3562 3400 759 300 3562 300 1654 
3400 3172 2888 2144 2904 2880 2097 2099 2120 
2880 2120 2099 2889 2853 3249 2021 2872 2872 
2051 2071 3249 3172 2143 2144 2121 2880 2099 
2071 2889 3089 3249 2838 2853 2834 3249 1971 
2853 2834 2838 3249 2853 3092 2955 3205 2956 
3205 2926 3221 2249 2927 3221 2251 3205 2927 
3205 2916 3221 2956 2284 2317 2316 2830 2827 
1918 2836 2854 2862 1998 2856 2916 2190 2224 
2193 2916 2193 2224 2926 2917 2192 2252 3221 
2917 2927 2908 3221 3095 3198 3288 3093 3093 
3249 2872 2880 2859 2866 2012 3247 3093 2881 
3092 3097 2850 2049 2018 2050 2841 2018 2020 
1996 2841 2020 1963 1996 3002 2994 3034 3022 
3333 480 492 3320 3206 2501 2502 2469 3041 
2597 2621 2588 3041 3034 2597 2588 3041 2621 
2597 3034 3131 3014 3032 3019 3041 2621 3034 
3045 3142 3045 3062 3131 3081 2797 2780 2794 
3045 3055 2630 2598 3128 3036 3165 3024 3060 
3074 3279 3081 3055 2630 2599 2631 3079 2767 
2796 2782 3396 1789 1787 1902 3118 2965 2964 
2976 3015 3153 2536 2507 3105 2937 2929 2920 
3112 2966 3118 2964 3109 3156 3262 2976 3275 
1744 17 2654 3121 3168 3051 2998 3264 3112 
3199 3181 2964 2946 3112 2966 3125 3052 3051 
3121 2963 2972 2322 3229 3122 3050 3233 3039 
3154 2427 2401 2402 3544 189 574 188 2401 
3117 3201 3154 3201 2425 2420 2388 3553 3401 
1879 2081 3612 3498 119 81 3129 3312 3126 
3132 3355 1811 1813 2031 3017 2516 2545 2517 
3009 2484 2516 2517 3009 2516 2484 3008 3035 
2706 2604 3023 3318 2739 440 479 3317 108 
476 2010 3317 2010 80 108 3035 2575 2540 
2574 3035 3063 2705 3023 3035 2706 2705 3046 
3035 2705 2706 3023 2707 2664 3046 2636 3046 
2706 2730 2707 2707 2604 3046 2706 2880 2097 
3247 2070 2880 3247 2097 2888 2861 2011 2041 
2043 2861 2101 2041 2072 2861 2041 2011 2072 
3120 2974 2988 2984 3095 3113 2877 3099 3094 
2859 2880 2888 3494 315 521 2815 3385 2398 
659 2436 2177 3202 2181 3085 2900 2892 2136 
2137 3178 2391 2356 2355 2924 2240 2238 2932 
3486 284 1637 285 2935 2911 2276 2954 2933 
2298 2271 2943 3139 2302 2964 3177 2933 3137 
2965 2954 3501 3341 111 1823 3377 288 1642 
1643 3265 2452 2478 2479 3265 3056 3051 2998 
3024 2540 2541 3170 3265 2997 2478 2451 2476 
2569 2997 2477 2966 3168 2379 3241 2997 2477 
2478 2451 3275 587 2654 2678 3275 585 2654 
587 3546 3417 674 221 3546 221 1182 3417 
3439 183 756 184 3545 2354 739 2428 3545 
2428 1643 2354 3545 2428 739 289 2979 3259 
2418 2448 3423 320 1189 1948 3419 253 728 
730 3419 253 1135 1136 2899 2906 2187 2915 
2915 2408 2418 2380 2915 2418 2408 2988 3494 
315 1200 78 3371 170 1124 2721 3520 1938 
131 1920 3113 3147 3096 2952 3595 3469 1148 
260 3085 2181 3149 2907 3557 253 728 3419 
2904 2897 2896 2914 3514 2082 1817 83 3510 
2649 23 12 3096 2894 2877 3113 2935 2243 
2911 2902 2925 2215 2216 2179 3391 2095 1804 
2069 2935 2216 2243 2902 2935 2303 2276 2275 
2894 2901 2166 2910 3321 133 530 2813 3321 
2813 521 133 2850 2070 2049 2050 3099 3094 
3198 3093 3136 3100 3097 3113 3595 260 714 
3469 3619 3338 23 3518 2880 2070 2099 2097 
3540 265 1158 266 3327 1887 1784 1890 3071 
3054 3080 3068 3365 6 29 3337 3131 3032 
3074 3078 3612 81 1811 3498 3355 2031 1813 
2820 3603 268 1162 3448 3183 3047 2631 3055 
3071 3080 3054 3079 3078 3044 3042 3053 3061 
3068 3080 3054 3071 2714 2692 3068 3084 3087 
2857 2845 3084 2845 2002 1975 2863 3175 2026 
2130 3140 3106 3104 3120 2900 2135 2892 2891 
3111 2920 2921 2909 2900 2892 2135 2136 3172 
2904 2178 2914 2992 2432 2464 2993 2992 2463 
2464 2431 2992 2463 2492 2464 3140 3120 3102 
2974 2992 2492 2463 3011 3011 3010 2463 2992 
3010 2490 2491 2462 3140 2985 3173 2993 2993 
2464 2492 2465 2993 2465 2492 3011 2992 2464 
2492 2993 3524 285 733 2260 3524 285 1640 
286 3544 188 765 189 3533 3363 114 104 
3523 190 576 189 3205 2283 3291 2249 3196 
2869 2036 2868 3532 3385 660 234 3425 309 
693 308 3425 308 1815 309 3385 660 659 
2398 2955 3291 2283 2316 2883 2882 2125 2103 
3362 508 102 1894 2884 2106 2285 2882 3245 
2947 2980 2955 2947 3245 2980 2968 2968 2315 
2969 2890 3535 111 112 3341 3092 3091 3205 
3150 3100 2899 3149 3192 3519 512 1813 81 
3150 2023 2024 1999 3135 3090 3091 3088 3088 
3091 3150 2854 3519 81 538 512 3150 2053 
2024 2023 3136 3100 3192 3097 3596 2825 738 
2708 2982 2990 2971 2423 3115 3233 2982 3122 
2982 2421 2384 2981 2982 2957 2384 2348 3139 
2964 3112 3118 3124 2994 3014 3003 2578 2551 
2983 2547 3115 2982 2971 2958 2998 2481 2480 
3170 3000 3233 2990 2983 3535 2107 1823 2821 
3602 3447 1164 2155 3446 1139 1140 256 2863 
2130 2159 3175 3580 2571 726 2537 3580 2571 
1137 3477 3580 3477 726 2571 2900 3218 2135 
2891 2918 2229 2228 2928 2918 2229 2928 2920 
2897 2903 2198 2164 3524 3390 1640 3224 3015 
3181 3153 2507 3103 2935 2934 3177 2900 2199 
2920 2909 2934 2274 2302 2273 3486 284 731 
2261 2935 2902 2911 2903 3139 3130 3105 3107 
3139 2934 2302 3177 3137 3177 2965 2954 3307 
2444 2340 2445 3486 2261 1637 284 3138 3106 
3202 3120 3599 250 734 3441 3601 3449 732 
2662 3449 732 734 251 3448 1162 1164 268 
3551 1913 1789 1902 3050 3040 2614 2645 3050 
3040 2645 3052 3551 1913 1195 1915 3551 1915 
1789 1913 3397 1171 1169 227 3567 2437 1151 
3408 2904 2145 2122 2144 2913 3172 2176 2914 
3390 286 735 733 2904 2866 2888 2870 2904 
2888 2122 2870 3108 3011 2993 2992 3548 3396 
1197 317 3415 1180 1178 222 3483 3231 564 
182 3482 304 1808 305 3335 163 47 164 
3588 259 1144 3470 3442 706 704 2189 2859 
2876 2062 2866 3099 2876 3198 3094 2866 2063 
2062 2033 2866 2062 2063 2876 3369 3253 1147 
3315 3164 2615 3040 3052 2997 2478 2510 3265 
3125 3056 3170 2998 3349 1817 1882 511 3514 
2820 435 3349 3115 3121 3122 3114 2886 2171 
2209 3293 3556 2580 755 2611 3562 299 759 
3420 3359 1887 118 1886 3359 1887 1783 523 
2886 2930 2209 2140 3359 523 118 1887 3400 
759 761 2670 3457 690 692 273 3530 3457 
690 2119 3611 3319 503 3490 3015 2535 2505 
2506 2946 3264 3199 2311 3112 3264 3199 2946 
3538 3238 672 2041 3307 2445 2472 2444 2444 
2375 3307 2340 3181 2493 2507 2474 3181 2493 
2474 2996 3519 512 538 3363 3363 1813 1882 
2820 2946 2334 2306 2312 3349 2820 1882 1817 
2946 2964 2306 2334 3141 2996 2493 3181 3141 
3120 3204 3264 3538 2041 1178 3238 3534 3393 
652 18 3060 3279 2761 2675 3393 2649 1138 
1199 3593 3384 675 1962 2666 3047 2665 2637 
3183 3047 2666 2637 3047 2666 2665 3075 3179 
122 1885 537 3368 2821 122 3179 3368 302 
709 3179 3512 110 709 302 2821 2116 1626 
2107 2821 1626 122 2107 2821 1627 122 1626 
2821 2116 1627 1626 3084 2845 1952 2836 1952 
2836 2842 3084 2836 2842 2852 3304 2835 3304 
1930 2826 2954 2303 2331 2304 2954 2911 2923 
2912 3137 2935 2954 2912 2924 2933 2932 2954 
3116 2961 2974 2984 3105 2928 2918 3103 2958 
3143 2948 3110 2844 1951 2843 2835 2852 2844 
1947 1968 2843 2829 2831 2828 2835 3304 1946 
1930 2844 1947 1968 1951 2835 1947 1946 2852 
3092 3088 3160 3089 3425 308 693 2077 2980 
2969 2977 2899 2984 2988 2395 2974 3120 2974 
2985 2986 3113 3147 2961 3116 3090 2846 2848 
2917 3113 2877 2893 2894 2984 2360 2394 3147 
2984 2961 2360 3147 3089 2838 2847 3288 3131 
3030 3041 3060 3071 3282 2735 3076 2922 2942 
2910 2901 3187 2430 2461 2991 3565 278 1631 
279 3595 2337 1148 2374 3565 279 719 278 
3565 279 1631 3522 2844 2835 2843 2828 2835 
2843 2829 1933 2835 2828 2826 2829 2835 2827 
2826 2828 3093 2872 3249 3089 3381 2649 55 
23 3093 2859 3249 2880 3095 2867 3198 2877 
3603 2183 702 2182 3288 3135 3093 3089 3328 
2678 587 3275 3457 273 692 272 3570 3228 
661 2363 2997 2510 2600 3265 3016 3170 2540 
3035 3016 3063 3170 3035 3456 1159 1157 233 
3119 3121 3168 3164 3062 3066 3134 3081 2605 
3047 2631 2637 3282 2738 2736 2758 3129 3019 
3020 3007 3020 3129 3131 3019 3516 516 508 
1907 3434 2142 696 694 3510 12 565 2649 
3201 2388 2420 2972 3544 188 574 3407 3454 
281 723 280 3489 166 1130 167 3523 189 
768 190 2995 2498 2482 2458 3007 2482 2528 
2515 3007 2528 2482 2498 2944 3138 3106 3202 
3138 2934 2913 3202 3519 3363 1813 512 3141 
3106 3120 3264 3120 2907 3202 3085 3505 2676 
488 3496 3581 226 669 225 3069 2781 2680 
3080 2865 2058 2133 2132 2865 2133 2162 2132 
3150 2053 2023 2862 3583 2354 1642 3224 3609 
3430 710 2278 3589 3470 716 2411 3589 3470 
1146 259 3589 259 716 3470 3201 2482 2458 
2995 3124 3157 3004 3021 3544 3407 765 188 
3124 3022 3157 3021 3480 2788 748 179 3507 
536 1885 101 3001 2991 3110 2949 2982 2384 
2957 2981 2982 2958 2957 2348 2322 2972 2351 
3229 3480 179 560 2788 3480 179 748 180 
3480 180 560 179 3479 168 561 167 3479 
167 1128 168 3117 3201 3154 2995 3201 2427 
2458 2425 3201 2458 2427 2995 3100 2977 2906 
2899 3100 2906 2988 2907 2979 2418 2380 2915 
2979 2988 2418 2915 3346 2777 20 2739 3346 
2739 581 2777 3335 2676 573 164 3334 594 
592 2823 3610 3320 491 3491 3353 151 28 
1 3334 28 481 2823 3614 3 595 3528 
3333 3083 492 26 3337 29 490 6 3529 
3354 61 158 3037 3033 2594 2577 3132 3068 
3033 3071 3132 3174 3068 3071 3025 3033 2564 
3020 3017 2544 2516 3008 3017 3025 2544 3008 
2943 2299 2271 2297 3426 325 1803 2069 3425 
2076 693 309 2943 2271 2269 2297 2943 2329 
2299 2297 3512 3368 709 2821 3006 2481 2503 
3005 3368 302 122 1627 3369 3253 656 239 
2997 2477 2600 2510 2997 3265 2600 2633 2997 
2569 2600 2477 2997 2568 2600 2569 3570 3228 
1159 3455 2998 2453 3168 3265 2997 2600 2601 
2633 3265 3170 2512 3016 3326 1920 131 509 
3326 1920 1794 1796 3520 3326 131 96 3326 
1796 1794 96 3509 161 581 3325 3504 1907 
509 533 3136 3097 3093 3095 2900 2893 2892 
2137 3071 3080 2734 3068 2981 2972 2383 2957 
2981 2383 2421 2384 2981 2420 2421 2383 2981 
2972 2420 2383 2981 2456 2421 2420 2981 2421 
2456 2989 3457 2119 1172 2118 3382 2649 565 
12 3457 2119 692 690 3382 2649 1766 2822 
2941 3090 3196 3200 2917 3200 2879 2860 3090 
3196 3200 2860 3452 1149 1151 3252 3579 3252 
1149 3452 3090 2860 3200 2917 3090 2848 2846 
2840 3327 1890 545 1887 2971 2387 2424 2983 
2983 2578 3000 3233 3000 3233 2578 3039 2983 
2424 2457 2426 3559 2090 717 3427 2457 2423 
2983 2990 3559 3427 1630 2090 3516 516 1790 
77 3118 3139 3177 3137 3137 3118 3109 2965 
3109 2950 2933 2943 3107 3108 3110 3130 3524 
3224 1640 2260 3143 2950 2939 3109 2950 2298 
2270 2933 3117 3156 3262 3109 3110 2949 2937 
2958 3573 2267 663 2296 2998 2453 2417 3168 
3525 3407 764 2754 3538 2041 672 3428 3465 
281 725 2171 3130 3028 3153 3012 3139 3118 
3177 2964 3124 3154 2994 3003 3570 2363 661 
3456 3154 3201 2427 2995 2904 2914 2179 2178 
3172 2144 2178 2904 3172 2143 2178 2144 2913 
2177 2176 3172 3509 161 478 5 3098 3094 
2904 2866 2880 2888 2120 3172 3183 2637 2631 
3047 3183 3067 3075 3077 3066 2682 2683 2703 
3066 3072 2683 3183 3183 3077 3047 3055 3183 
2689 2666 3075 3081 2780 2797 3082 3312 2716 
2736 2738 3607 2142 1170 3434 2850 1963 1989 
1964 2850 2841 1963 1964 2850 1964 1989 2847 
2850 2841 1964 2847 3090 2916 2857 2908 3335 
164 573 163 3335 164 47 2676 3540 265 
706 3436 3588 2411 1144 2447 3588 2447 718 
2411 2833 1954 1935 1936 2833 2837 1954 1936 
2836 1953 1954 2845 2833 2846 1954 2837 3510 
177 565 12 3548 317 1787 3396 3178 2355 
2323 2940 3111 3178 2991 2992 2891 2134 2135 
2108 3514 83 435 2082 3094 2880 3172 2888 
2944 2934 3138 3202 2913 2214 2176 2177 3495 
3322 595 150 3513 245 766 3438 3548 1902 
1787 1897 3623 2751 740 2825 3623 2825 1125 
2751 3623 2825 740 3472 3623 3472 1125 2825 
3000 2579 2578 2548 3132 3037 3068 3174 3370 
2655 580 579 3071 3076 3080 3079 3133 3071 
3079 3282 3122 2999 2989 2981 3367 3224 1641 
1640 3086 3065 3070 3128 3124 3034 3045 3131 
3126 3122 2999 3009 3025 3017 3126 3008 3126 
3127 3122 3128 3412 240 1145 2558 3017 3009 
3126 3008 3489 167 563 166 3030 3014 2527 
3032 3489 167 1130 2697 3467 284 729 283 
3563 3308 671 3429 3464 1137 1139 255 3119 
3164 3040 3121 3580 3464 1137 2537 3607 272 
1170 3478 3606 2508 1139 2537 3606 2537 724 
2508 3496 2676 575 573 3505 3335 488 2676 
3496 573 575 163 3505 2676 573 3335 3496 
163 575 6 3530 1174 1172 2119 3591 2119 
690 3374 2918 2164 3218 2891 2918 2891 3218 
2900 2900 2137 2165 2909 2935 2242 2243 2216 
3098 2904 2897 3159 3159 2042 2063 2866 2896 
2914 2179 2904 2898 2179 2180 2146 2898 2180 
2179 2896 3530 273 1172 1174 3491 3322 481 
150 3154 2401 2427 3201 3123 3201 2981 2972 
3123 2999 3201 3007 3123 2995 3201 3117 3123 
2999 2981 3201 3117 3201 2972 2963 3196 2007 
2008 1983 2868 3220 2885 3096 3220 2868 2885 
2878 3322 150 480 481 3090 3200 2927 2917 
3135 3220 2941 2869 3033 2564 2594 2577 3033 
2593 2628 2594 3033 2628 2593 3044 3033 2564 
2593 2594 3020 2593 3044 3033 2593 2564 3020 
2563 2593 3020 3044 2563 2564 2593 3020 3033 
2856 1998 2016 2025 2871 2025 2047 2055 2871 
2862 2025 2055 3580 3477 1137 254 2851 2871 
2047 2045 2851 1991 1990 2014 3610 3491 491 
2823 3491 3320 481 3322 3353 1 592 151 
2823 481 491 28 3334 151 481 28 3564 
2486 747 3404 3110 2958 2937 2948 2463 2462 
3010 2491 3564 3404 1648 2486 3564 3404 747 
294 3010 2520 2554 2521 3110 3027 3010 3018 
2949 2350 2319 2971 3353 2823 28 3334 3353 
3334 592 2823 2949 2938 2288 2321 3540 3436 
706 2219 3353 3334 28 151 2986 2435 2434 
2397 2979 2967 2936 3204 3557 254 1136 3477 
2979 2996 3204 2936 3418 678 677 1925 3346 
2739 20 478 3509 3325 581 2739 3552 1925 
678 3418 3345 526 135 1961 3138 3120 3104 
3106 3135 3288 3093 3095 2907 2181 2152 2188 
3100 2980 2899 3192 2918 2198 2228 3218 3495 
150 595 3 3138 2913 2914 3098 3104 3098 
2897 2891 3140 2909 3101 3104 3111 2992 2991 
3108 3024 2514 2541 2542 3128 3006 3170 3024 
3128 3070 3024 3170 3124 3165 3045 3021 3124 
3127 3165 3021 3592 291 745 2485 3024 2576 
2541 2575 3592 2485 1646 291 3036 2575 2576 
3024 3036 2605 2576 2575 3035 3023 2604 2574 
2855 2045 2046 2068 3587 3419 1135 2602 3084 
2916 3158 2863 2815 1782 1785 315 3585 1897 
1198 3421 3463 714 712 2337 3585 1897 1785 
2815 2815 1196 1903 1892 1892 1897 2815 1888 
2815 1903 1198 1897 1897 1892 2815 1903 3585 
3421 1785 1897 2815 1888 1897 1785 3088 3251 
2832 2839 2968 3192 2104 2899 2917 2908 2192 
3221 3150 2873 2054 2053 3516 3362 508 77 
3511 3362 1788 77 3362 1788 1790 1894 3361 
154 39 3328 3361 3328 589 154 3490 503 
160 3319 3569 2363 660 2398 3106 2946 2944 
3264 3141 3012 2465 2993 3112 3141 3012 3181 
3551 1902 1789 3396 3060 3279 2762 2761 3589 
260 1146 3469 3589 3469 1146 2374 3548 316 
1787 317 3074 3042 2746 2765 2954 2975 2332 
2965 2923 2237 2238 2212 2924 2932 2238 2923 
3611 8 503 3319 3611 8 766 52 3578 
2733 1655 2670 3611 52 503 8 3611 52 
766 3352 3606 3446 1139 2508 3611 3352 503 
52 3500 89 527 530 3090 2848 2860 2917 
2917 2860 2858 2848 3360 79 1800 1980 2917 
2225 2879 3200 3502 2815 1200 3329 3611 3490 
766 3319 2857 1976 2002 2845 2858 2917 2846 
2875 3359 1886 1783 1887 2833 3162 2848 2837 
2848 2837 2846 2833 2848 2846 2840 2833 3067 
2689 2711 2704 3392 1962 1182 1184 3513 2755 
766 3352 3392 1962 675 674 3546 1962 1182 
3392 3596 3462 738 249 3060 2762 3279 3074 
3469 260 714 716 3060 2762 3074 3059 3059 
2761 3060 2762 3516 1907 1790 516 2954 2911 
2276 2923 2935 2903 2911 2912 3573 231 663 
230 3137 2939 2933 3109 2923 2277 2276 2304 
2923 2276 2277 2911 2923 2237 2212 2211 2923 
2211 2212 2911 3465 2171 725 2208 3090 2927 
2908 2917 3150 2862 2873 2053 3135 3091 2927 
3205 3135 3093 3089 3092 3135 2867 2868 3196 
3090 2941 3196 3135 3613 3374 687 2119 3538 
3428 1178 2041 3606 256 1139 3446 2987 2405 
2404 2442 3117 2963 2975 2987 3618 3507 536 
3341 3109 2950 2939 2933 3124 3154 3003 2995 
3613 2119 1179 3374 3109 2975 2963 2943 2987 
2953 2962 2943 3381 2649 1134 1138 3249 3093 
2847 2859 3380 2119 686 2069 2889 2881 2071 
2872 3614 3083 26 3528 3519 81 1813 3355 
3575 2236 665 2267 3574 2580 1651 2549 3103 
2912 2903 2935 3103 2925 2934 2935 3015 2507 
2506 3181 3428 2041 1177 1178 3428 2041 672 
671 3573 231 1163 3458 2935 2934 2242 2925 
2890 2335 2315 2969 2905 2335 2890 2969 2968 
2899 2905 2969 2105 3148 2968 2104 2980 2970 
2346 2955 3092 3192 2955 3097 3615 314 705 
3401 2899 2151 2905 2915 2899 2977 2906 2915 
3532 1157 1155 234 2899 2915 2905 2977 2982 
2385 2422 2423 2982 2423 2422 2990 2982 2990 
2422 2989 2982 2422 2385 2384 2982 2421 2422 
2384 2982 2422 2421 2989 3438 766 763 245 
3183 3067 2689 3075 3183 2666 2689 2683 3067 
2710 2711 2689 3545 289 1643 2428 3603 2183 
1162 3443 3545 289 739 288 3061 2713 2712 
2734 3061 3068 2734 3080 3061 2713 2734 3068 
3129 3132 3126 3007 3354 2677 583 582 2952 
2295 2325 2326 2325 2942 2952 2951 2952 2960 
2325 2951 2952 2326 2325 2960 3556 2611 1652 
2580 2952 2942 2295 2266 3113 2961 2952 3102 
3444 718 720 258 3102 2910 2942 2894 2852 
2844 2836 3304 2836 1953 1934 1935 2836 1934 
1918 1935 2844 2828 3304 2835 2844 3304 2852 
2835 2830 1918 1935 2836 2830 1919 1918 2827 
2830 1935 1918 1919 2830 1935 1936 2833 2975 
2954 2332 2932 2950 2290 2270 2298 3475 2728 
1121 2727 2950 2943 2298 2933 2933 2271 2240 
2269 2939 2320 2287 2290 3375 290 741 289 
3013 2587 2588 3041 3013 2495 3014 2994 3013 
3002 2466 2994 3013 3002 2994 3034 3013 2994 
3014 3034 3013 2466 2495 2994 3319 160 190 
8 3538 222 1178 223 3377 288 739 737 
3592 2485 745 3152 3407 764 765 188 3344 
10 585 3275 3525 2754 572 3407 3414 1652 
1651 2580 3407 2754 765 764 2998 2479 2512 
2480 2998 2417 2453 2454 3563 3429 671 224 
3608 264 707 3406 3110 3027 3028 3010 3115 
2981 2957 3114 3018 2552 2553 2519 3110 2937 
2949 3108 3143 3115 2958 2957 3569 2363 1157 
3456 3130 3028 3110 3115 3029 3059 3041 3030 
3142 3062 3045 3055 3467 283 1636 284 3467 
283 729 3301 3467 3301 1636 283 3512 302 
1627 110 2527 2525 3030 2560 3466 709 711 
2116 3556 2580 1652 3414 3413 751 753 2549 
3547 295 1650 296 3143 2948 2939 2950 3109 
2943 2963 2950 3117 3114 3156 3109 3114 2950 
2963 2972 2980 2381 2382 2968 2883 2074 2104 
2947 3610 2725 491 3320 3135 2868 3220 2869 
3092 3205 2947 3150 3465 2171 1634 281 3100 
2988 2984 3120 3537 1980 1798 79 2980 3192 
2947 2968 3031 2723 2741 3043 3074 3029 3043 
3030 3059 3029 3074 3030 3043 3029 2591 2590 
3031 2673 2650 3059 3031 2648 2650 2673 3060 
2621 2674 2651 3062 2657 2674 2621 3532 234 
1155 3385 3504 1907 1794 1920 2883 2314 2126 
2300 2883 2127 2314 2890 2883 2126 2105 2103 
2127 2105 2883 2126 3450 696 698 270 2968 
2105 2883 2890 3449 1131 1133 251 3504 1920 
509 1907 3503 10 31 34 2192 2252 968 
2225 3492 2788 767 3356 3503 34 585 10 
2939 2287 2255 2259 3475 2727 556 2728 2939 
2290 2287 2259 2939 2259 2270 2290 3137 2924 
2912 2954 3451 4 1741 2822 3088 2839 2832 
2831 3327 1890 1784 75 3327 75 545 1890 
3500 530 527 2815 3613 3499 687 3350 3617 
3499 1179 3350 3619 32 23 3381 3581 226 
1173 3403 3581 3403 669 226 3581 3403 1173 
2117 3581 2117 669 3403 3049 2612 2644 2643 
3049 2643 2691 2612 3509 5 581 161 3619 
3381 23 2649 3102 2960 2961 2952 3113 2952 
2961 3147 3503 34 31 2699 3099 3101 3116 
3113 3099 2893 2892 3101 3616 96 1794 517 
3094 2888 2866 2859 3091 3205 2926 2916 3492 
3356 1123 2788 3091 3205 2916 2927 2917 2887 
2197 2875 3493 3324 767 3492 2917 2875 2197 
2161 3491 150 481 151 3491 151 594 150 
3491 151 481 3334 3578 2733 761 2717 3578 
2717 1655 2733 3087 3091 2854 2856 3451 2822 
571 4 3087 2833 2846 2836 2846 2875 2003 
2004 3616 517 533 96 2875 2846 2003 2857 
3070 3035 3047 3036 3055 3073 3047 3036 3183 
2683 2689 3067 3596 249 1127 3462 3133 3282 
3082 3081 3513 3352 438 2755 3438 2755 763 
766 3391 687 686 3380 2843 1950 1972 1971 
2843 1972 1973 2853 2844 1951 1973 2843 2843 
1950 1951 1972 2834 2829 1921 2831 3088 3089 
2839 2853 2834 2831 1939 2838 3087 2832 3251 
2840 2829 1926 1921 1911 2834 1971 1970 1949 
2829 1911 1921 1909 2829 1909 1921 2831 2829 
1909 1900 1911 2829 1899 1900 1909 2829 2828 
1899 1909 2829 2826 1899 2828 3589 2374 1146 
2411 1932 1900 1911 2829 1900 1932 1911 1912 
2830 1899 1908 2827 2830 2828 1899 2827 2817 
1919 2830 1908 2830 1908 1919 2827 3618 101 
536 3507 3529 158 61 9 3529 9 582 
158 3616 96 533 3326 3615 3341 1823 2821 
3615 2821 705 3341 3547 2549 751 3413 3516 
1907 508 1894 3312 3073 2716 2738 3142 3129 
3131 3133 3142 3129 3045 3131 3132 3071 3033 
3044 3065 3126 3086 3064 2695 2694 3070 3065 
3070 3063 2705 3035 3380 2069 1179 2119 3142 
3312 3073 3086 3411 1186 1188 1942 3391 304 
1804 2095 3071 2735 2734 3076 3071 2734 2735 
2714 2922 2910 2232 2201 2922 2201 2167 2910 
2922 2910 2167 2901 2922 2202 2167 2201 2922 
2167 2202 2901 2943 2271 2299 2298 2943 2299 
2329 2962 2943 2962 2329 2953 2943 2963 2299 
2962 2943 2299 2330 2298 3479 167 561 2697 
2943 2330 2299 2963 3617 326 1804 3350 3617 
326 1179 325 3617 325 1804 326 3405 293 
1647 1648 3564 3405 747 2459 3405 1648 1647 
2459 3564 2459 1648 3405 2844 2828 2832 2836 
3087 3251 2832 3088 2831 2853 2844 3088 2844 
2828 2831 2832 3135 3092 3091 3205 3091 2862 
2873 3150 3087 2836 2832 2833 3606 2537 1139 
3464 3456 2363 1157 1159 3598 2154 696 2142 
3606 3464 724 2537 3568 3238 1180 1987 3614 
3528 595 3083 3614 3528 26 3 3613 3350 
687 3517 3515 1961 1802 1978 3134 3183 3055 
3077 3567 3408 658 2437 3567 3408 1151 236 
3396 1197 1195 1902 3395 1994 1187 322 2767 
2765 3053 3078 3053 2744 2767 2768 3590 256 
722 3446 3395 322 1797 1994 3078 2767 2780 
3079 3104 2918 2900 2891 3495 3 480 150 
3614 3495 26 3333 3495 26 480 3 3614 
3333 595 3495 3495 3333 480 26 2918 2228 
2198 2919 2761 3059 3060 2675 3384 219 675 
676 3594 219 1186 3384 3384 676 675 1942 
3594 3384 676 219 3395 322 1187 321 3384 
1942 675 1962 3135 3092 3205 2956 3513 3438 
438 245 3091 2871 2862 2856 3135 3205 2941 
2956 3087 3088 2832 2844 3091 2856 2862 2854 
3099 3098 2876 3094 3095 3198 3093 3099 3087 
2840 3251 3090 2924 2240 2932 2933 2924 2912 
2213 2239 3574 2580 753 3414 2320 2322 2972 
2351 2950 2957 2320 2972 2950 2322 2320 2290 
2950 2270 2290 2939 2950 2933 2270 2939 2984 
2974 2395 2961 2984 2394 2360 2395 2984 2395 
2360 2961 3556 2611 755 3422 3424 1948 1191 
320 2817 505 128 1769 128 379 2817 1769 
2817 2830 1923 1908 2817 128 1923 1924 1923 
1908 505 2817 505 1923 128 1767 1923 505 
128 2817 1908 1923 505 1767 3598 2154 1168 
3450 3598 3450 696 2154 3464 724 726 255 
3595 2337 714 3463 3406 2245 1156 1154 3541 
263 1154 264 3598 3450 1168 270 2998 2453 
2479 2480 3598 270 696 3450 2886 2235 2209 
2930 3135 3096 3220 2868 3620 3356 1120 3493 
3135 2941 3220 2956 2886 2931 2235 2930 3497 
3358 555 3357 3493 3356 767 742 2171 2169 
2886 2114 2886 2209 2171 2140 2886 2140 2171 
2114 3096 2970 3147 3097 3140 2992 2993 3173 
3102 2942 2910 2951 3102 2952 2942 2951 3494 
78 521 315 3140 3111 2992 3173 3424 320 
1793 1948 3135 2956 3220 3096 3562 299 1654 
300 3576 3459 1167 2236 3576 2236 666 3459 
3100 2984 3147 3116 3100 3147 2984 2980 3135 
2867 3288 3095 3575 229 1165 230 3423 320 
1795 321 3423 321 1189 320 2851 1974 1965 
2842 2851 2842 1992 2856 2851 2856 2016 2871 
3087 3090 3251 3088 3084 2836 2852 2856 3498 
81 539 119 3340 2005 1809 1811 3575 230 
665 229 3135 3090 2927 3091 3575 230 1165 
3461 3113 3100 3097 3147 2817 3144 1924 1938 
3096 2885 2877 2894 3099 2877 2893 3113 3136 
3100 3116 3085 3594 219 676 218 3594 218 
1186 219 3594 218 676 3411 3509 5 478 
3346 3130 3153 3028 3119 3103 2919 2928 2918 
3143 3130 3118 3107 3606 3464 1139 255 3108 
3010 3011 2992 3095 2867 2877 2868 3094 2889 
3172 2880 3103 2897 2919 2918 3509 3346 581 
5 3367 1640 1641 286 3099 3101 2892 3098 
3509 3346 478 2739 3488 216 679 215 3499 
3380 687 3391 2849 3090 2848 2860 3537 1980 
535 1938 3536 2649 1138 3393 3433 2170 715 
3186 3584 3433 713 276 3580 254 726 3477 
2863 2158 2159 2130 3579 3252 657 3315 3617 
325 1179 2069 3617 2069 1804 325 3487 180 
750 181 2461 2991 2959 3187 3547 3155 751 
2549 3547 2549 1650 3155 3111 3102 2921 3178 
2355 3178 2323 2356 3102 2910 2921 3178 3102 
3178 2960 2951 3102 2951 2910 3178 2854 1968 
1973 2844 2844 2831 2828 2843 3597 2686 1129 
2708 3597 249 736 3462 3087 2846 2845 2836 
2966 2964 2334 2370 3594 3411 676 1942 3112 
2993 3011 3012 3105 3103 2918 3104 3593 219 
1184 220 3025 2543 2564 2577 3395 321 1797 
322 3490 190 160 3394 3394 2755 576 160 
3394 2755 766 768 2816 1906 1920 1919 2816 
2817 1908 1919 2816 1919 1920 2817 2917 2879 
2225 2887 3536 3393 55 2649 2949 2321 3187 
2938 3616 1907 1794 3504 3187 2991 2959 2949 
2991 2461 2959 3001 3111 3187 2929 2991 3558 
241 1141 242 3558 241 653 2586 3558 2586 
1141 241 3558 2586 653 2618 3557 2571 1136 
2602 3557 2602 728 2571 3489 2697 563 167 
3142 3165 3045 3124 3142 3036 3165 3128 2899 
2151 2104 2905 3136 3192 3149 2881 3100 3149 
2906 2907 2968 2969 2905 2890 3100 3097 2980 
3192 2968 2104 2905 2899 3103 2919 2903 2912 
3574 3414 1651 2580 3574 3414 753 297 3574 
297 1651 3414 3573 230 1163 231 3103 2935 
2903 2925 3099 2892 2876 3098 3103 2903 2897 
2925 3536 3393 1138 18 3536 18 55 3393 
3543 2010 1806 1979 3542 1892 683 1901 3542 
1901 1194 1892 3518 165 1134 3338 2787 819 
2825 817 2825 817 2771 2787 3518 3338 177 
165 3517 1179 1176 3374 2935 2912 2911 2954 
2954 2304 2332 2932 2975 2933 2954 2932 2954 
2331 2332 2304 2954 2332 2331 2965 3500 85 
527 89 3500 89 1200 85 3347 2005 108 
1979 3347 1979 1807 2005 3543 3347 1806 515 
3347 1806 1807 1979 3131 3014 3034 3041 3142 
3036 3073 3055 3124 3117 3004 3157 2994 3124 
3014 3034 3124 3022 2994 3154 3535 2821 112 
2107 3535 2821 1823 3341 3621 744 178 0 
3123 3124 3127 3126 3624 3621 744 3357 3498 
3340 1811 2005 3498 3340 539 513 3498 513 
1811 3340 3597 250 1129 3441 3498 513 539 
81 3113 2894 2893 3102 3102 2893 2910 2894 
2894 2895 2885 2111 3350 326 1176 1179 2894 
2931 2885 2895 2894 2895 2901 2931 3122 3039 
3009 3048 3122 3050 3057 3065 3122 2989 2999 
3009 3126 2999 3008 3009 3126 3122 3009 3048 
3621 0 178 176 3523 189 576 3388 3523 
3388 768 189 3620 3356 742 246 3544 3407 
574 2754 3095 2868 2877 3096 3540 266 1158 
3442 3090 2917 2908 2857 3094 2859 2866 2876 
3085 3094 2889 3172 3098 3085 3172 3094 3615 
2821 1823 3401 3508 154 589 153 3588 3444 
1144 258 3581 225 669 3440 3613 3517 1179 
3350 3547 3413 1650 2549 3567 236 658 3408 
3547 3413 751 296 3078 3074 2765 3042 3078 
3074 3042 3032 3078 3060 3081 3074 3603 267 
702 3443 3131 3078 3074 3060 3131 3074 3030 
3060 3515 1978 526 1961 3515 1978 1802 105 
3566 276 1629 277 3539 2278 1150 2337 3525 
2754 764 2799 2881 3192 3092 3097 3390 3224 
735 3367 3539 2337 712 2278 2924 2939 2270 
2933 3475 2727 1121 171 2924 2259 2270 2939 
2924 2239 2270 2259 3475 171 556 2727 2950 
2330 2322 2298 2950 2322 2330 2963 2950 2963 
2330 2943 2950 2330 2298 2943 3387 2081 701 
703 3386 2079 697 311 3133 3129 3312 3142 
3523 3394 576 190 3132 3020 3033 3025 3142 
3086 3036 3128 3071 3054 3044 3079 3142 3073 
3312 3134 3538 3428 672 223 3538 223 1178 
3428 3485 2056 1812 2057 3585 315 1785 316 
3593 220 675 219 3120 3141 3204 2986 3106 
3112 2946 3264 3592 3409 745 292 3532 2398 
1155 1157 3537 518 535 79 3571 232 662 
231 3340 2005 539 103 2835 1933 1916 1930 
2835 1930 1916 2826 1916 2829 2835 2826 2835 
1947 1933 1930 2835 1946 1947 1930 3340 103 
1809 2005 3534 18 1199 3393 3025 2515 2543 
2544 3025 3008 2515 2544 3007 3025 2543 3020 
3126 3025 3008 3007 3007 2543 2528 3020 3583 
3224 737 2354 3554 3152 1647 3409 3409 1647 
1646 3152 3571 232 1161 3455 3533 3349 114 
2820 3141 2996 3204 2986 3484 241 1143 2586 
3113 3147 3116 3100 2980 2968 2969 2899 3100 
2906 3149 2899 3493 2752 1120 3358 2980 2382 
2969 2968 3493 3358 767 2752 3603 3448 1162 
2182 2925 2902 2903 2896 3103 2903 2919 2897 
3098 3104 2897 3138 2925 2896 2903 2897 2925 
2897 2914 2896 3406 1154 1156 264 3115 3233 
3027 3018 3143 3109 3114 2950 3125 3065 3122 
3128 3115 3027 3233 3040 3125 3051 3058 3056 
3127 3121 3156 3114 3597 2708 736 2686 3593 
220 1184 3392 3606 255 724 3464 3156 3121 
3119 3114 3583 3224 1642 287 3583 287 737 
3224 3583 287 1642 288 3582 224 1175 225 
3582 225 670 224 3582 225 1175 3440 3591 
274 690 273 3608 3436 1156 2219 3607 2142 
694 2175 3607 2175 1170 2142 3607 2175 694 
3478 3620 246 1120 3356 3624 3357 744 3493 
3624 3493 1120 3357 3136 3097 3192 2881 3366 
518 1796 96 3574 2549 1651 3413 3621 3497 
178 3357 3543 515 1806 80 2987 2405 2406 
2953 3543 80 108 515 3553 314 703 313 
2864 2044 2048 2068 2044 2855 2068 2864 2855 
2044 2068 2046 3565 3522 719 279 2044 2046 
2855 2013 3556 3414 755 2580 3602 2182 1164 
3448 3451 2676 571 2652 3451 2676 1741 164 
3451 164 571 2676 537 112 3179 2821 3029 
3030 2590 3043 3013 3029 2587 3041 3029 2587 
2620 2619 3029 2620 2587 3041 3615 3401 705 
2821 3615 3401 1823 314 3614 3333 26 3083 
3614 3083 595 3333 2935 2276 2303 2954 2935 
2276 2243 2275 2935 2243 2276 2911 3088 2853 
2839 2831 3442 266 704 706 3599 3441 734 
2686 3441 250 1129 1131 3441 250 734 736 
2986 2434 2418 2988 3623 3527 740 2751 2979 
2418 2988 2986 3561 218 677 217 3515 1961 
526 3345 3546 220 1182 221 3571 3455 662 
232 3571 3455 1161 3228 2539 2574 3016 2540 
3591 273 1174 274 3016 3035 3023 3063 3591 
273 690 3530 2574 2539 3016 3023 3016 3035 
2574 3023 3016 2540 2574 3035 3499 326 1804 
303 3434 694 696 271 3607 3434 694 2142 
3433 1629 1628 3186 3566 3433 1629 276 3365 
3337 575 6 3364 156 586 22 3364 22 
487 156 3364 22 586 2748 3007 3020 2526 
3019 3007 2526 2498 3019 3007 2526 2528 2498 
3007 2528 2526 3020 2859 1989 2847 2850 3443 
2183 704 702 3539 2337 1150 3463 3366 96 
535 518 3520 1920 1796 1938 3603 268 702 
267 3443 702 704 267 1968 2852 2854 1993 
2844 2843 1973 2853 2844 2853 1973 2854 3087 
2832 2836 2844 3440 669 670 225 2836 2844 
2854 3087 3339 527 244 2815 3500 3339 527 
85 3453 85 244 3339 3100 3149 2907 3085 
3140 3120 2985 3106 3096 3097 3147 3113 3597 
2686 736 3441 3113 3102 3101 3116 3585 315 
1198 2815 3102 3101 2909 2893 3113 3102 2893 
3101 3086 2737 2693 2716 3086 2716 2693 3064 
3142 3165 2598 3045 3127 3122 3121 3114 3128 
3070 3036 3024 3591 3530 1174 273 3591 3530 
690 2119 3276 118 544 543 3030 2525 3013 
2560 3030 3029 3013 3041 3013 3041 3014 3030 
2525 2527 3030 3014 3115 3233 2971 2982 3115 
2971 3233 3018 3559 3427 717 278 3559 278 
1630 3427 3000 2548 2578 2547 3474 2749 553 
174 3474 174 1117 2749 2851 2016 2015 2047 
2851 2871 2016 2047 3084 3091 2856 2871 3616 
1907 533 517 3084 2851 2855 2871 3617 3499 
1804 3380 3379 3189 688 2057 3379 2057 1810 
3189 3325 581 576 161 3509 3325 478 161 
3126 3065 3086 3128 3142 3073 3036 3086 3325 
2739 576 581 3549 2172 667 2210 3549 2210 
1169 2172 3549 2210 667 3460 3503 2699 585 
34 3503 2699 31 2654 3602 269 1164 3447 
2552 2973 2983 2518 2519 2552 2973 3018 2552 
2519 2973 2518 3130 3012 3153 3112 3130 3112 
3153 3119 3015 2536 2506 2507 3571 3228 662 
3455 3019 3124 3014 3003 3133 3071 3044 3079 
3124 3034 3022 3021 3078 2780 3082 3079 3078 
3082 2780 3081 3133 3079 3044 3078 3379 2057 
688 306 3031 2648 2561 3029 3031 2591 2561 
2592 3031 2561 2591 3029 3031 2722 2626 2592 
3031 2723 2626 2722 3031 2591 2592 2626 3031 
2626 2723 2591 2979 2448 2418 2435 2435 2996 
2979 2448 2979 2435 2418 2986 3527 247 1123 
1125 3526 162 578 2 3526 2 67 162 
3526 2 578 2655 3138 2944 3106 3139 3408 
664 658 2437 3526 2655 67 2 3578 2670 
761 2733 3107 2928 2937 3105 3436 265 1156 
1158 3432 277 717 715 3088 2854 2853 2844 
3136 2889 3094 3093 3436 265 706 707 2834 
2853 1971 2843 3608 2219 1156 3406 2834 2831 
2838 2853 2834 2843 2831 2853 3534 18 652 
242 3125 3065 3052 3122 3125 3121 3051 2998 
3132 3020 3025 3007 3142 2598 3165 3036 3570 
232 1159 233 3537 79 1798 518 3537 79 
535 1980 3087 2854 3091 3088 3091 2926 2862 
2871 3118 2976 3156 3109 3123 3007 2995 3124 
3123 3127 3122 3126 3582 3440 670 225 3524 
3224 733 3390 3588 258 718 3444 3451 2822 
1741 2652 3587 2602 1135 2634 3136 2881 3149 
2889 3549 3460 1169 2210 3094 3085 2889 3136 
3098 2866 2876 3094 3136 3094 3085 3099 3493 
3357 767 3358 3587 2634 730 2602 3099 3113 
2893 3101 2952 2894 3096 3113 3539 3463 712 
2337 3557 2602 1136 3419 3585 2815 1785 315 
3572 227 1171 3397 3600 269 698 3447 3180 
588 11 2747 3563 2041 1177 3428 2993 2985 
3106 3140 3573 3458 663 231 3105 2929 2937 
3108 3474 2729 553 2749 3612 3342 1811 2031 
3118 3156 3114 3109 3612 2031 119 3342 3413 
1651 1650 2549 3525 2799 572 2754 3581 3440 
1173 225 3095 3113 3097 3096 3133 3082 3079 
3078 3324 1120 1118 1123 3133 3032 3044 3020 
3110 3018 3010 3001 3110 3001 2971 3018 3143 
2957 2948 2950 3473 172 1119 173 3473 173 
554 172 3143 3107 3110 3130 3130 3011 3108 
3110 3115 3027 3028 3110 3124 3019 3014 3131 
3358 179 767 2788 3124 3045 3034 3021 3620 
246 742 744 3126 3008 2999 3007 3534 242 
1199 18 3127 3124 3004 3021 3624 0 744 
3621 3118 3114 3156 3119 3156 2966 3118 3119 
3125 2998 3051 3056 3125 3005 3156 2998 3125 
3006 3005 2998 3566 277 715 276 3566 277 
1629 3432 3134 3077 3055 3073 3547 296 1650 
3413 3044 3020 3132 3133 3546 1962 674 1987 
3546 1987 1182 1962 3605 2447 1142 2475 3546 
1987 674 3417 3105 3104 2920 3111 3104 2918 
2920 2900 3140 3106 2993 3105 3531 165 1132 
166 3106 3112 2993 3105 3120 3102 3116 3101 
3531 166 565 165 3120 2907 2988 2986 3120 
3085 3100 2907 3100 2907 2988 3120 3120 2988 
2974 2986 3138 3098 3085 2913 3100 2988 2977 
2984 3085 3120 3100 3116 3575 3461 665 230 
3127 3124 3117 3004 3605 2475 720 2447 3136 
3085 3116 3099 3585 2815 1198 1897 3180 11 
588 156 3180 485 487 2748 3102 2921 2910 
2909 485 2747 68 486 3179 705 709 2821 
3368 3179 709 2821 3084 2002 2000 1975 3578 
2717 761 301 3578 301 1655 2717 3577 2486 
749 3155 3577 3155 1649 2486 3124 3007 3003 
3019 3123 3122 2999 3126 3126 3057 3065 3122 
3126 3122 3065 3128 3126 3065 3057 3064 3454 
281 1633 2171 3090 2916 2908 2927 3090 3091 
2916 2927 3090 3087 2916 3091 3085 3099 3101 
3116 3587 2634 1135 3445 3587 3445 730 2634 
3587 3445 1135 252 3605 2475 1142 3468 3142 
3124 3045 3129 3129 3045 3131 3124 330 2824 
484 3083 3605 3468 720 2475 3142 3055 3073 
3134 3086 2693 3065 3064 3086 2720 2737 3070 
3070 2695 3086 2720 3086 2720 2695 2693 3086 
2693 2695 3065 2695 3070 3086 3065 3624 246 
744 0 3125 2998 3156 3121 3593 3392 675 
220 3593 3392 1184 1962 3592 292 745 291 
3083 492 26 328 3083 2725 492 328 3083 
594 623 595 3083 623 594 2725 3610 2823 
594 3491 3320 491 492 2725 3104 3101 2900 
2909 3105 2928 2937 2920 2929 2920 2921 3111 
2920 2929 2921 2230 3379 306 1810 2057 3071 
3133 3044 3132 3133 3044 3032 3078 3133 3081 
3082 3078 3378 301 1657 30 3573 3458 1163 
2296 3138 3103 2897 2925 3531 166 1132 2696 
3140 3105 3104 3106 3531 2696 565 166 3105 
3112 2993 3108 3020 3044 3132 3033 3020 3131 
3032 3019 3131 3020 3032 3133 3129 3131 3019 
3124 3492 3324 767 2752 3324 1123 1118 2752 
3129 3133 3132 3020 3133 3078 3062 3081 3133 
3062 3078 3131 3133 3081 3062 3134 3062 3142 
3133 3134 3087 2857 2846 3090 3087 2832 2840 
2833 3566 3186 1629 3433 3432 715 717 3186 
3566 3433 715 3186 3431 2772 762 2789 3087 
2840 2846 2833 3087 2846 2840 3090 2966 3156 
3118 2976 2966 3112 3118 3119 3125 3121 3156 
3127 3125 3156 3005 3127 3623 3472 740 248 
3623 248 1125 3472 3622 3350 326 3517 3622 
3517 687 3350 3427 278 719 717 3559 277 
717 3432 3427 717 719 2090 3584 276 713 
275 3140 3120 3104 3101 3549 3460 667 228 
3608 264 1156 265 3542 1901 683 215 3093 
2872 2889 2880 3435 169 559 168 3435 168 
1126 169 3435 168 559 2698 3435 2698 1126 
168 3093 3094 2859 2880 3123 3117 3124 2995 
3534 242 652 3398 3534 3398 1199 242 3123 
3117 3114 3127 3123 3114 2981 3122 3123 2981 
2999 3122 3534 3398 652 2618 3117 2963 2972 
3114 2972 3123 3117 3114 2881 3093 3092 2872 
3549 228 1169 3460 3613 3517 687 3374 3613 
3374 1179 3517 3130 3108 3112 3105 3107 3130 
3105 3108 3107 3110 2937 2948 3143 3107 2948 
3110 3107 2937 2928 2948 3612 2031 1811 3355 
3137 2919 2928 3103 3107 2948 2928 2939 3139 
2964 2302 2944 3118 3130 3139 3107 3612 3355 
119 2031 3137 3105 2928 3107 3137 3103 3105 
3139 3136 3099 3116 3113 3539 3463 1150 261 
3366 131 535 96 3575 3461 1165 2267 3542 
215 1194 1901 3520 1920 131 3326 3135 3095 
2956 3096 3539 261 712 3463 3440 2093 670 
669 3542 215 683 214 3136 3095 3093 3099 
3136 3113 3116 3100 3099 3094 3085 3098 3524 
2260 733 3224 3099 3085 3101 3098 3125 3005 
3006 3127 3622 3517 326 74 3622 74 687 
3517 3622 74 326 303 3621 3357 178 744 
3115 2958 2971 3110 3473 173 1119 2729 3473 
2729 554 173 3472 738 740 248 3596 3472 
738 2825 3619 7 23 32 3602 2155 1164 
2182 3124 3127 3117 3123 3323 519 534 77 
3135 3095 2868 2867 3525 2799 764 2772 3525 
2772 572 2799 3493 744 767 3357 2956 3096 
3097 2970 3096 2956 3097 3095 3141 2985 2986 
3120 3586 3408 664 236 3526 2655 578 3207 
3567 237 658 236 3408 1151 1153 2437 3579 
3315 1149 3252 3130 3011 3028 3012 3130 3112 
3011 3012 3139 2944 2302 2934 3130 3118 3139 
3112 3573 2296 663 3458 3130 3139 3105 3112 
3143 3137 2939 3107 3474 2749 1117 2729 3143 
2958 2948 2957 3143 2957 3114 3115 3130 3114 
3115 3143 3114 3118 3130 3119 3439 2805 567 
184 3439 184 756 2805 3135 2941 2927 3090 
3525 2772 764 187 3525 187 572 2772 3541 
2278 708 2245 3541 2245 1154 2278 3417 1987 
1180 1182 3141 2986 2435 2996 3417 1987 674 
673 3141 2986 2985 2435 3568 1987 1180 3417 
3416 2078 695 310 3138 2897 2914 2925 3139 
3105 3112 3106 3106 2946 3139 2944 2946 2964 
3139 2944 2946 2964 3112 3139 2946 3106 3139 
3112 3612 3355 1811 81 3572 2172 668 3397 
3137 2933 2965 3109 3572 3397 1171 2172 3572 
3397 668 227 3620 3493 742 3356 3493 742 
767 744 3135 3096 2868 3095 3492 2752 767 
2788 3492 2788 1123 2752 3135 3092 2956 3097 
3590 2508 1140 3446 3135 3097 2956 3095 3590 
2508 722 2475 3140 3105 3111 3104 3140 3105 
3108 3111 3140 2993 3108 3105 3140 2993 2992 
3108 3140 3108 2992 3111 3584 275 1628 276 
3584 275 713 2115 3548 1897 1197 1902 3136 
3097 2881 3093 3136 2881 2889 3093 3605 3468 
1142 257 3605 257 720 3468 3604 2189 704 
2183 3142 3045 2598 3055 3142 3055 2598 3036 
3604 2183 1160 2189 3142 3128 3126 3086 3142 
3124 3126 3127 2950 3114 2957 2972 3409 745 
746 3152 3114 2950 2957 3143 3138 3103 2925 
2934 3138 2934 2914 2913 3138 3104 3105 3106 
3138 3106 3105 3139 3138 3103 2934 3139 3138 
3105 3104 3103 3138 3139 3105 3103 
CELL_TYPES 15232
10
10
10
10
10
10
10
10
10
10
10
10
10
10
10
10
10
10
10
10
10
10
10
10
10
10
10
10
10
10
10
10
10
10
10
10
10
10
10
10
10
10
10
10
10
10
10
10
10
10
10
10
10
10
10
10
10
10
10
10
10
10
10
10
10
10
10
10
10
10
10
10
10
10
10
10
10
10
10
10
10
10
10
10
10
10
10
10
10
10
10
10
10
10
10
10
10
10
10
10
10
10
10
10
10
10
10
10
10
10
10
10
10
10
10
10
10
10
10
10
10
10
10
10
10
10
10
10
10
10
10
10
10
10
10
10
10
10
10
10
10
10
10
10
10
10
10
10
10
10
10
10
10
10
10
10
10
10
10
10
10
10
10
10
10
10
10
10
10
10
10
10
10
10
10
10
10
10
10
10
10
10
10
10
10
10
10
10
10
10
10
10
10
10
10
10
10
10
10
10
10
10
10
10
10
10
10
10
10
10
10
10
10
10
10
10
10
10
10
10
10
10
10
10
10
10
10
10
10
10
10
10
10
10
10
10
10
10
10
10
10
10
10
10
10
10
10
10
10
10
10
10
10
10
10
10
10
10
10
10
10
10
10
10
10
10
10
10
10
10
10
10
10
10
10
10
10
10
10
10
10
10
10
10
10
10
10
10
10
10
10
10
10
10
10
10
10
10
10
10
10
10
10
10
10
10
10
10
10
10
10
10
10
10
10
10
10
10
10
10
10
10
10
10
10
10
10
10
10
10
10
10
10
10
10
10
10
10
10
10
10
10
10
10
10
10
10
10
10
10
10
10
10
10
10
10
10
10
10
10
10
10
10
10
10
10
10
10
10
10
10
10
10
10
10
10
10
10
10
10
10
10
10
10
10
10
10
10
10
10
10
10
10
10
10
10
10
10
10
10
10
10
10
10
10
10
10
10
10
10
10
10
10
10
10
10
10
10
10
10
10
10
10
10
10
10
10
10
10
10
10
10
10
10
10
10
10
10
10
10
10
10
10
10
10
10
10
10
10
10
10
10
10
10
10
10
10
10
10
10
10
10
10
10
10
10
10
10
10
10
10
10
10
10
10
10
10
10
10
10
10
10
10
10
10
10
10
10
10
10
10
10
10
10
10
10
10
10
10
10
10
10
10
10
10
10
10
10
10
10
10
10
10
10
10
10
10
10
10
10
10
10
10
10
10
10
10
10
10
10
10
10
10
10
10
10
10
10
10
10
10
10
10
10
10
10
10
10
10
10
10
10
10
10
10
10
10
10
10
10
10
10
10
10
10
10
10
10
10
10
10
10
10
10
10
10
10
10
10
10
10
10
10
10
10
10
10
10
10
10
10
10
10
10
10
10
10
10
10
10
10
10
10
10
10
10
10
10
10
10
10
10
10
10
10
10
10
10
10
10
10
10
10
10
10
10
10
10
10
10
10
10
10
10
10
10
10
10
10
10
10
10
10
10
10
10
10
10
10
10
10
10
10
10
10
10
10
10
10
10
10
10
10
10
10
10
10
10
10
10
10
10
10
10
10
10
10
10
10
10
10
10
10
10
10
10
10
10
10
10
10
10
10
10
10
10
10
10
10
10
10
10
10
10
10
10
10
10
10
10
10
10
10
10
10
10
10
10
10
10
10
10
10
10
10
10
10
10
10
10
10
10
10
10
10
10
10
10
10
10
10
10
10
10
10
10
10
10
10
10
10
10
10
10
10
10
10
10
10
10
10
10
10
10
10
10
10
10
10
10
10
10
10
10
10
10
10
10
10
10
10
10
10
10
10
10
10
10
10
10
10
10
10
10
10
10
10
10
10
10
10
10
10
10
10
10
10
10
10
10
10
10
10
10
10
10
10
10
10
10
10
10
10
10
10
10
10
10
10
10
10
10
10
10
10
10
10
10
10
10
10
10
10
10
10
10
10
10
10
10
10
10
10
10
10
10
10
10
10
10
10
10
10
10
10
10
10
10
10
10
10
10
10
10
10
10
10
10
10
10
10
10
10
10
10
10
10
10
10
10
10
10
10
10
10
10
10
10
10
10
10
10
10
10
10
10
10
10
10
10
10
10
10
10
10
10
10
10
10
10
10
10
10
10
10
10
10
10
10
10
10
10
10
10
10
10
10
10
10
10
10
10
10
10
10
10
10
10
10
10
10
10
10
10
10
10
10
10
10
10
10
10
10
10
10
10
10
10
10
10
10
10
10
10
10
10
10
10
10
10
10
10
10
10
10
10
10
10
10
10
10
10
10
10
10
10
10
10
10
10
10
10
10
10
10
10
10
10
10
10
10
10
10
10
10
10
10
10
10
10
10
10
10
10
10
10
10
10
10
10
10
10
10
10
10
10
10
10
10
10
10
10
10
10
10
10
10
10
10
10
10
10
10
10
10
10
10
10
10
10
10
10
10
10
10
10
10
10
10
10
10
10
10
10
10
10
10
10
10
10
10
10
10
10
10
10
10
10
10
10
10
10
10
10
10
10
10
10
10
10
10
10
10
10
10
10
10
10
10
10
10
10
10
10
10
10
10
10
10
10
10
10
10
10
10
10
10
10
10
10
10
10
10
10
10
10
10
10
10
10
10
10
10
10
10
10
10
10
10
10
10
10
10
10
10
10
10
10
10
10
10
10
10
10
10
10
10
10
10
10
10
10
10
10
10
10
10
10
10
10
10
10
10
10
10
10
10
10
10
10
10
10
10
10
10
10
10
10
10
10
10
10
10
10
10
10
10
10
10
10
10
10
10
10
10
10
10
10
10
10
10
10
10
10
10
10
10
10
10
10
10
10
10
10
10
10
10
10
10
10
10
10
10
10
10
10
10
10
10
10
10
10
10
10
10
10
10
10
10
10
10
10
10
10
10
10
10
10
10
10
10
10
10
10
10
10
10
10
10
10
10
10
10
10
10
10
10
10
10
10
10
10
10
10
10
10
10
10
10
10
10
10
10
10
10
10
10
10
10
10
10
10
10
10
10
10
10
10
10
10
10
10
10
10
10
10
10
10
10
10
10
10
10
10
10
10
10
10
10
10
10
10
10
10
10
10
10
10
10
10
10
10
10
10
10
10
10
10
10
10
10
10
10
10
10
10
10
10
10
10
10
10
10
10
10
10
10
10
10
10
10
10
10
10
10
10
10
10
10
10
10
10
10
10
10
10
10
10
10
10
10
10
10
10
10
10
10
10
10
10
10
10
10
10
10
10
10
10
10
10
10
10
10
10
10
10
10
10
10
10
10
10
10
10
10
10
10
10
10
10
10
10
10
10
10
10
10
10
10
10
10
10
10
10
10
10
10
10
10
10
10
10
10
10
10
10
10
10
10
10
10
10
10
10
10
10
10
10
10
10
10
10
10
10
10
10
10
10
10
10
10
10
10
10
10
10
10
10
10
10
10
10
10
10
10
10
10
10
10
10
10
10
10
10
10
10
10
10
10
10
10
10
10
10
10
10
10
10
10
10
10
10
10
10
10
10
10
10
10
10
10
10
10
10
10
10
10
10
10
10
10
10
10
10
10
10
10
10
10
10
10
10
10
10
10
10
10
10
10
10
10
10
10
10
10
10
10
10
10
10
10
10
10
10
10
10
10
10
10
10
10
10
10
10
10
10
10
10
10
10
10
10
10
10
10
10
10
10
10
10
10
10
10
10
10
10
10
10
10
10
10
10
10
10
10
10
10
10
10
10
10
10
10
10
10
10
10
10
10
10
10
10
10
10
10
10
10
10
10
10
10
10
10
10
10
10
10
10
10
10
10
10
10
10
10
10
10
10
10
10
10
10
10
10
10
10
10
10
10
10
10
10
10
10
10
10
10
10
10
10
10
10
10
10
10
10
10
10
10
10
10
10
10
10
10
10
10
10
10
10
10
10
10
10
10
10
10
10
10
10
10
10
10
10
10
10
10
10
10
10
10
10
10
10
10
10
10
10
10
10
10
10
10
10
10
10
10
10
10
10
10
10
10
10
10
10
10
10
10
10
10
10
10
10
10
10
10
10
10
10
10
10
10
10
10
10
10
10
10
10
10
10
10
10
10
10
10
10
10
10
10
10
10
10
10
10
10
10
10
10
10
10
10
10
10
10
10
10
10
10
10
10
10
10
10
10
10
10
10
10
10
10
10
10
10
10
10
10
10
10
10
10
10
10
10
10
10
10
10
10
10
10
10
10
10
10
10
10
10
10
10
10
10
10
10
10
10
10
10
10
10
10
10
10
10
10
10
10
10
10
10
10
10
10
10
10
10
10
10
10
10
10
10
10
10
10
10
10
10
10
10
10
10
10
10
10
10
10
10
10
10
10
10
10
10
10
10
10
10
10
10
10
10
10
10
10
10
10
10
10
10
10
10
10
10
10
10
10
10
10
10
10
10
10
10
10
10
10
10
10
10
10
10
10
10
10
10
10
10
10
10
10
10
10
10
10
10
10
10
10
10
10
10
10
10
10
10
10
10
10
10
10
10
10
10
10
10
10
10
10
10
10
10
10
10
10
10
10
10
10
10
10
10
10
10
10
10
10
10
10
10
10
10
10
10
10
10
10
10
10
10
10
10
10
10
10
10
10
10
10
10
10
10
10
10
10
10
10
10
10
10
10
10
10
10
10
10
10
10
10
10
10
10
10
10
10
10
10
10
10
10
10
10
10
10
10
10
10
10
10
10
10
10
10
10
10
10
10
10
10
10
10
10
10
10
10
10
10
10
10
10
10
10
10
10
10
10
10
10
10
10
10
10
10
10
10
10
10
10
10
10
10
10
10
10
10
10
10
10
10
10
10
10
10
10
10
10
10
10
10
10
10
10
10
10
10
10
10
10
10
10
10
10
10
10
10
10
10
10
10
10
10
10
10
10
10
10
10
10
10
10
10
10
10
10
10
10
10
10
10
10
10
10
10
10
10
10
10
10
10
10
10
10
10
10
10
10
10
10
10
10
10
10
10
10
10
10
10
10
10
10
10
10
10
10
10
10
10
10
10
10
10
10
10
10
10
10
10
10
10
10
10
10
10
10
10
10
10
10
10
10
10
10
10
10
10
10
10
10
10
10
10
10
10
10
10
10
10
10
10
10
10
10
10
10
10
10
10
10
10
10
10
10
10
10
10
10
10
10
10
10
10
10
10
10
10
10
10
10
10
10
10
10
10
10
10
10
10
10
10
10
10
10
10
10
10
10
10
10
10
10
10
10
10
10
10
10
10
10
10
10
10
10
10
10
10
10
10
10
10
10
10
10
10
10
10
10
10
10
10
10
10
10
10
10
10
10
10
10
10
10
10
10
10
10
10
10
10
10
10
10
10
10
10
10
10
10
10
10
10
10
10
10
10
10
10
10
10
10
10
10
10
10
10
10
10
10
10
10
10
10
10
10
10
10
10
10
10
10
10
10
10
10
10
10
10
10
10
10
10
10
10
10
10
10
10
10
10
10
10
10
10
10
10
10
10
10
10
10
10
10
10
10
10
10
10
10
10
10
10
10
10
10
10
10
10
10
10
10
10
10
10
10
10
10
10
10
10
10
10
10
10
10
10
10
10
10
10
10
10
10
10
10
10
10
10
10
10
10
10
10
10
10
10
10
10
10
10
10
10
10
10
10
10
10
10
10
10
10
10
10
10
10
10
10
10
10
10
10
10
10
10
10
10
10
10
10
10
10
10
10
10
10
10
10
10
10
10
10
10
10
10
10
10
10
10
10
10
10
10
10
10
10
10
10
10
10
10
10
10
10
10
10
10
10
10
10
10
10
10
10
10
10
10
10
10
10
10
10
10
10
10
10
10
10
10
10
10
10
10
10
10
10
10
10
10
10
10
10
10
10
10
10
10
10
10
10
10
10
10
10
10
10
10
10
10
10
10
10
10
10
10
10
10
10
10
10
10
10
10
10
10
10
10
10
10
10
10
10
10
10
10
10
10
10
10
10
10
10
10
10
10
10
10
10
10
10
10
10
10
10
10
10
10
10
10
10
10
10
10
10
10
10
10
10
10
10
10
10
10
10
10
10
10
10
10
10
10
10
10
10
10
10
10
10
10
10
10
10
10
10
10
10
10
10
10
10
10
10
10
10
10
10
10
10
10
10
10
10
10
10
10
10
10
10
10
10
10
10
10
10
10
10
10
10
10
10
10
10
10
10
10
10
10
10
10
10
10
10
10
10
10
10
10
10
10
10
10
10
10
10
10
10
10
10
10
10
10
10
10
10
10
10
10
10
10
10
10
10
10
10
10
10
10
10
10
10
10
10
10
10
10
10
10
10
10
10
10
10
10
10
10
10
10
10
10
10
10
10
10
10
10
10
10
10
10
10
10
10
10
10
10
10
10
10
10
10
10
10
10
10
10
10
10
10
10
10
10
10
10
10
10
10
10
10
10
10
10
10
10
10
10
10
10
10
10
10
10
10
10
10
10
10
10
10
10
10
10
10
10
10
10
10
10
10
10
10
10
10
10
10
10
10
10
10
10
10
10
10
10
10
10
10
10
10
10
10
10
10
10
10
10
10
10
10
10
10
10
10
10
10
10
10
10
10
10
10
10
10
10
10
10
10
10
10
10
10
10
10
10
10
10
10
10
10
10
10
10
10
10
10
10
10
10
10
10
10
10
10
10
10
10
10
10
10
10
10
10
10
10
10
10
10
10
10
10
10
10
10
10
10
10
10
10
10
10
10
10
10
10
10
10
10
10
10
10
10
10
10
10
10
10
10
10
10
10
10
10
10
10
10
10
10
10
10
10
10
10
10
10
10
10
10
10
10
10
10
10
10
10
10
10
10
10
10
10
10
10
10
10
10
10
10
10
10
10
10
10
10
10
10
10
10
10
10
10
10
10
10
10
10
10
10
10
10
10
10
10
10
10
10
10
10
10
10
10
10
10
10
10
10
10
10
10
10
10
10
10
10
10
10
10
10
10
10
10
10
10
10
10
10
10
10
10
10
10
10
10
10
10
10
10
10
10
10
10
10
10
10
10
10
10
10
10
10
10
10
10
10
10
10
10
10
10
10
10
10
10
10
10
10
10
10
10
10
10
10
10
10
10
10
10
10
10
10
10
10
10
10
10
10
10
10
10
10
10
10
10
10
10
10
10
10
10
10
10
10
10
10
10
10
10
10
10
10
10
10
10
10
10
10
10
10
10
10
10
10
10
10
10
10
10
10
10
10
10
10
10
10
10
10
10
10
10
10
10
10
10
10
10
10
10
10
10
10
10
10
10
10
10
10
10
10
10
10
10
10
10
10
10
10
10
10
10
10
10
10
10
10
10
10
10
10
10
10
10
10
10
10
10
10
10
10
10
10
10
10
10
10
10
10
10
10
10
10
10
10
10
10
10
10
10
10
10
10
10
10
10
10
10
10
10
10
10
10
10
10
10
10
10
10
10
10
10
10
10
10
10
10
10
10
10
10
10
10
10
10
10
10
10
10
10
10
10
10
10
10
10
10
10
10
10
10
10
10
10
10
10
10
10
10
10
10
10
10
10
10
10
10
10
10
10
10
10
10
10
10
10
10
10
10
10
10
10
10
10
10
10
10
10
10
10
10
10
10
10
10
10
10
10
10
10
10
10
10
10
10
10
10
10
10
10
10
10
10
10
10
10
10
10
10
10
10
10
10
10
10
10
10
10
10
10
10
10
10
10
10
10
10
10
10
10
10
10
10
10
10
10
10
10
10
10
10
10
10
10
10
10
10
10
10
10
10
10
10
10
10
10
10
10
10
10
10
10
10
10
10
10
10
10
10
10
10
10
10
10
10
10
10
10
10
10
10
10
10
10
10
10
10
10
10
10
10
10
10
10
10
10
10
10
10
10
10
10
10
10
10
10
10
10
10
10
10
10
10
10
10
10
10
10
10
10
10
10
10
10
10
10
10
10
10
10
10
10
10
10
10
10
10
10
10
10
10
10
10
10
10
10
10
10
10
10
10
10
10
10
10
10
10
10
10
10
10
10
10
10
10
10
10
10
10
10
10
10
10
10
10
10
10
10
10
10
10
10
10
10
10
10
10
10
10
10
10
10
10
10
10
10
10
10
10
10
10
10
10
10
10
10
10
10
10
10
10
10
10
10
10
10
10
10
10
10
10
10
10
10
10
10
10
10
10
10
10
10
10
10
10
10
10
10
10
10
10
10
10
10
10
10
10
10
10
10
10
10
10
10
10
10
10
10
10
10
10
10
10
10
10
10
10
10
10
10
10
10
10
10
10
10
10
10
10
10
10
10
10
10
10
10
10
10
10
10
10
10
10
10
10
10
10
10
10
10
10
10
10
10
10
10
10
10
10
10
10
10
10
10
10
10
10
10
10
10
10
10
10
10
10
10
10
10
10
10
10
10
10
10
10
10
10
10
10
10
10
10
10
10
10
10
10
10
10
10
10
10
10
10
10
10
10
10
10
10
10
10
10
10
10
10
10
10
10
10
10
10
10
10
10
10
10
10
10
10
10
10
10
10
10
10
10
10
10
10
10
10
10
10
10
10
10
10
10
10
10
10
10
10
10
10
10
10
10
10
10
10
10
10
10
10
10
10
10
10
10
10
10
10
10
10
10
10
10
10
10
10
10
10
10
10
10
10
10
10
10
10
10
10
10
10
10
10
10
10
10
10
10
10
10
10
10
10
10
10
10
10
10
10
10
10
10
10
10
10
10
10
10
10
10
10
10
10
10
10
10
10
10
10
10
10
10
10
10
10
10
10
10
10
10
10
10
10
10
10
10
10
10
10
10
10
10
10
10
10
10
10
10
10
10
10
10
10
10
10
10
10
10
10
10
10
10
10
10
10
10
10
10
10
10
10
10
10
10
10
10
10
10
10
10
10
10
10
10
10
10
10
10
10
10
10
10
10
10
10
10
10
10
10
10
10
10
10
10
10
10
10
10
10
10
10
10
10
10
10
10
10
10
10
10
10
10
10
10
10
10
10
10
10
10
10
10
10
10
10
10
10
10
10
10
10
10
10
10
10
10
10
10
10
10
10
10
10
10
10
10
10
10
10
10
10
10
10
10
10
10
10
10
10
10
10
10
10
10
10
10
10
10
10
10
10
10
10
10
10
10
10
10
10
10
10
10
10
10
10
10
10
10
10
10
10
10
10
10
10
10
10
10
10
10
10
10
10
10
10
10
10
10
10
10
10
10
10
10
10
10
10
10
10
10
10
10
10
10
10
10
10
10
10
10
10
10
10
10
10
10
10
10
10
10
10
10
10
10
10
10
10
10
10
10
10
10
10
10
10
10
10
10
10
10
10
10
10
10
10
10
10
10
10
10
10
10
10
10
10
10
10
10
10
10
10
10
10
10
10
10
10
10
10
10
10
10
10
10
10
10
10
10
10
10
10
10
10
10
10
10
10
10
10
10
10
10
10
10
10
10
10
10
10
10
10
10
10
10
10
10
10
10
10
10
10
10
10
10
10
10
10
10
10
10
10
10
10
10
10
10
10
10
10
10
10
10
10
10
10
10
10
10
10
10
10
10
10
10
10
10
10
10
10
10
10
10
10
10
10
10
10
10
10
10
10
10
10
10
10
10
10
10
10
10
10
10
10
10
10
10
10
10
10
10
10
10
10
10
10
10
10
10
10
10
10
10
10
10
10
10
10
10
10
10
10
10
10
10
10
10
10
10
10
10
10
10
10
10
10
10
10
10
10
10
10
10
10
10
10
10
10
10
10
10
10
10
10
10
10
10
10
10
10
10
10
10
10
10
10
10
10
10
10
10
10
10
10
10
10
10
10
10
10
10
10
10
10
10
10
10
10
10
10
10
10
10
10
10
10
10
10
10
10
10
10
10
10
10
10
10
10
10
10
10
10
10
10
10
10
10
10
10
10
10
10
10
10
10
10
10
10
10
10
10
10
10
10
10
10
10
10
10
10
10
10
10
10
10
10
10
10
10
10
10
10
10
10
10
10
10
10
10
10
10
10
10
10
10
10
10
10
10
10
10
10
10
10
10
10
10
10
10
10
10
10
10
10
10
10
10
10
10
10
10
10
10
10
10
10
10
10
10
10
10
10
10
10
10
10
10
10
10
10
10
10
10
10
10
10
10
10
10
10
10
10
10
10
10
10
10
10
10
10
10
10
10
10
10
10
10
10
10
10
10
10
10
10
10
10
10
10
10
10
10
10
10
10
10
10
10
10
10
10
10
10
10
10
10
10
10
10
10
10
10
10
10
10
10
10
10
10
10
10
10
10
10
10
10
10
10
10
10
10
10
10
10
10
10
10
10
10
10
10
10
10
10
10
10
10
10
10
10
10
10
10
10
10
10
10
10
10
10
10
10
10
10
10
10
10
10
10
10
10
10
10
10
10
10
10
10
10
10
10
10
10
10
10
10
10
10
10
10
10
10
10
10
10
10
10
10
10
10
10
10
10
10
10
10
10
10
10
10
10
10
10
10
10
10
10
10
10
10
10
10
10
10
10
10
10
10
10
10
10
10
10
10
10
10
10
10
10
10
10
10
10
10
10
10
10
10
10
10
10
10
10
10
10
10
10
10
10
10
10
10
10
10
10
10
10
10
10
10
10
10
10
10
10
10
10
10
10
10
10
10
10
10
10
10
10
10
10
10
10
10
10
10
10
10
10
10
10
10
10
10
10
10
10
10
10
10
10
10
10
10
10
10
10
10
10
10
10
10
10
10
10
10
10
10
10
10
10
10
10
10
10
10
10
10
10
10
10
10
10
10
10
10
10
10
10
10
10
10
10
10
10
10
10
10
10
10
10
10
10
10
10
10
10
10
10
10
10
10
10
10
10
10
10
10
10
10
10
10
10
10
10
10
10
10
10
10
10
10
10
10
10
10
10
10
10
10
10
10
10
10
10
10
10
10
10
10
10
10
10
10
10
10
10
10
10
10
10
10
10
10
10
10
10
10
10
10
10
10
10
10
10
10
10
10
10
10
10
10
10
10
10
10
10
10
10
10
10
10
10
10
10
10
10
10
10
10
10
10
10
10
10
10
10
10
10
10
10
10
10
10
10
10
10
10
10
10
10
10
10
10
10
10
10
10
10
10
10
10
10
10
10
10
10
10
10
10
10
10
10
10
10
10
10
10
10
10
10
10
10
10
10
10
10
10
10
10
10
10
10
10
10
10
10
10
10
10
10
10
10
10
10
10
10
10
10
10
10
10
10
10
10
10
10
10
10
10
10
10
10
10
10
10
10
10
10
10
10
10
10
10
10
10
10
10
10
10
10
10
10
10
10
10
10
10
10
10
10
10
10
10
10
10
10
10
10
10
10
10
10
10
10
10
10
10
10
10
10
10
10
10
10
10
10
10
10
10
10
10
10
10
10
10
10
10
10
10
10
10
10
10
10
10
10
10
10
10
10
10
10
10
10
10
10
10
10
10
10
10
10
10
10
10
10
10
10
10
10
10
10
10
10
10
10
10
10
10
10
10
10
10
10
10
10
10
10
10
10
10
10
10
10
10
10
10
10
10
10
10
10
10
10
10
10
10
10
10
10
10
10
10
10
10
10
10
10
10
10
10
10
10
10
10
10
10
10
10
10
10
10
10
10
10
10
10
10
10
10
10
10
10
10
10
10
10
10
10
10
10
10
10
10
10
10
10
10
10
10
10
10
10
10
10
10
10
10
10
10
10
10
10
10
10
10
10
10
10
10
10
10
10
10
10
10
10
10
10
10
10
10
10
10
10
10
10
10
10
10
10
10
10
10
10
10
10
10
10
10
10
10
10
10
10
10
10
10
10
10
10
10
10
10
10
10
10
10
10
10
10
10
10
10
10
10
10
10
10
10
10
10
10
10
10
10
10
10
10
10
10
10
10
10
10
10
10
10
10
10
10
10
10
10
10
10
10
10
10
10
10
10
10
10
10
10
10
10
10
10
10
10
10
10
10
10
10
10
10
10
10
10
10
10
10
10
10
10
10
10
10
10
10
10
10
10
10
10
10
10
10
10
10
10
10
10
10
10
10
10
10
10
10
10
10
10
10
10
10
10
10
10
10
10
10
10
10
10
10
10
10
10
10
10
10
10
10
10
10
10
10
10
10
10
10
10
10
10
10
10
10
10
10
10
10
10
10
10
10
10
10
10
10
10
10
10
10
10
10
10
10
10
10
10
10
10
10
10
10
10
10
10
10
10
10
10
10
10
10
10
10
10
10
10
10
10
10
10
10
10
10
10
10
10
10
10
10
10
10
10
10
10
10
10
10
10
10
10
10
10
10
10
10
10
10
10
10
10
10
10
10
10
10
10
10
10
10
10
10
10
10
10
10
10
10
10
10
10
10
10
10
10
10
10
10
10
10
10
10
10
10
10
10
10
10
10
10
10
10
10
10
10
10
10
10
10
10
10
10
10
10
10
10
10
10
10
10
10
10
10
10
10
10
10
10
10
10
10
10
10
10
10
10
10
10
10
10
10
10
10
10
10
10
10
10
10
10
10
10
10
10
10
10
10
10
10
10
10
10
10
10
10
10
10
10
10
10
10
10
10
10
10
10
10
10
10
10
10
10
10
10
10
10
10
10
10
10
10
10
10
10
10
10
10
10
10
10
10
10
10
10
10
10
10
10
10
10
10
10
10
10
10
10
10
10
10
10
10
10
10
10
10
10
10
10
10
10
10
10
10
10
10
10
10
10
10
10
10
10
10
10
10
10
10
10
10
10
10
10
10
10
10
10
10
10
10
10
10
10
10
10
10
10
10
10
10
10
10
10
10
10
10
10
10
10
10
10
10
10
10
10
10
10
10
10
10
10
10
10
10
10
10
10
10
10
10
10
10
10
10
10
10
10
10
10
10
10
10
10
10
10
10
10
10
10
10
10
10
10
10
10
10
10
10
10
10
10
10
10
10
10
10
10
10
10
10
10
10
10
10
10
10
10
10
10
10
10
10
10
10
10
10
10
10
10
10
10
10
10
10
10
10
10
10
10
10
10
10
10
10
10
10
10
10
10
10
10
10
10
10
10
10
10
10
10
10
10
10
10
10
10
10
10
10
10
10
10
10
10
10
10
10
10
10
10
10
10
10
10
10
10
10
10
10
10
10
10
10
10
10
10
10
10
10
10
10
10
10
10
10
10
10
10
10
10
10
10
10
10
10
10
10
10
10
10
10
10
10
10
10
10
10
10
10
10
10
10
10
10
10
10
10
10
10
10
10
10
10
10
10
10
10
10
10
10
10
10
10
10
10
10
10
10
10
10
10
10
10
10
10
10
10
10
10
10
10
10
10
10
10
10
10
10
10
10
10
10
10
10
10
10
10
10
10
10
10
10
10
10
10
10
10
10
10
10
10
10
10
10
10
10
10
10
10
10
10
10
10
10
10
10
10
10
10
10
10
10
10
10
10
10
10
10
10
10
10
10
10
10
10
10
10
10
10
10
10
10
10
10
10
10
10
10
10
10
10
10
10
10
10
10
10
10
10
10
10
10
10
10
10
10
10
10
10
10
10
10
10
10
10
10
10
10
10
10
10
10
10
10
10
10
10
10
10
10
10
10
10
10
10
10
10
10
10
10
10
10
10
10
10
10
10
10
10
10
10
10
10
10
10
10
10
10
10
10
10
10
10
10
10
10
10
10
10
10
10
10
10
10
10
10
10
10
10
10
10
10
10
10
10
10
10
10
10
10
10
10
10
10
10
10
10
10
10
10
10
10
10
10
10
10
10
10
10
10
10
10
10
10
10
10
10
10
10
10
10
10
10
10
10
10
10
10
10
10
10
10
10
10
10
10
10
10
10
10
10
10
10
10
10
10
10
10
10
10
10
10
10
10
10
10
10
10
10
10
10
10
10
10
10
10
10
10
10
10
10
10
10
10
10
10
10
10
10
10
10
10
10
10
10
10
10
10
10
10
10
10
10
10
10
10
10
10
10
10
10
10
10
10
10
10
10
10
10
10
10
10
10
10
10
10
10
10
10
10
10
10
10
10
10
10
10
10
10
10
10
10
10
10
10
10
10
10
10
10
10
10
10
10
10
10
10
10
10
10
10
10
10
10
10
10
10
10
10
10
10
10
10
10
10
10
10
10
10
10
10
10
10
10
10
10
10
10
10
10
10
10
10
10
10
10
10
10
10
10
10
10
10
10
10
10
10
10
10
10
10
10
10
10
10
10
10
10
10
10
10
10
10
10
10
10
10
10
10
10
10
10
10
10
10
10
10
10
10
10
10
10
10
10
10
10
10
10
10
10
10
10
10
10
10
10
10
10
10
10
10
10
10
10
10
10
10
10
10
10
10
10
10
10
10
10
10
10
10
10
10
10
10
10
10
10
10
10
10
10
10
10
10
10
10
10
10
10
10
10
10
10
10
10
10
10
10
10
10
10
10
10
10
10
10
10
10
10
10
10
10
10
10
10
10
10
10
10
10
10
10
10
10
10
10
10
10
10
10
10
10
10
10
10
10
10
10
10
10
10
10
10
10
10
10
10
10
10
10
10
10
10
10
10
10
10
10
10
10
10
10
10
10
10
10
10
10
10
10
10
10
10
10
10
10
10
10
10
10
10
10
10
10
10
10
10
10
10
10
10
10
10
10
10
10
10
10
10
10
10
10
10
10
10
10
10
10
10
10
10
10
10
10
10
10
10
10
10
10
10
10
10
10
10
10
10
10
10
10
10
10
10
10
10
10
10
10
10
10
10
10
10
10
10
10
10
10
10
10
10
10
10
10
10
10
10
10
10
10
10
10
10
10
10
10
10
10
10
10
10
10
10
10
10
10
10
10
10
10
10
10
10
10
10
10
10
10
10
10
10
10
10
10
10
10
10
10
10
10
10
10
10
10
10
10
10
10
10
10
10
10
10
10
10
10
10
10
10
10
10
10
10
10
10
10
10
10
10
10
10
10
10
10
10
10
10
10
10
10
10
10
10
10
10
10
10
10
10
10
10
10
10
10
10
10
10
10
10
10
10
10
10
10
10
10
10
10
10
10
10
10
10
10
10
10
10
10
10
10
10
10
10
10
10
10
10
10
10
10
10
10
10
10
10
10
10
10
10
10
10
10
10
10
10
10
10
10
10
10
10
10
10
10
10
10
10
10
10
10
10
10
10
10
10
10
10
10
10
10
10
10
10
10
10
10
10
10
10
10
10
10
10
10
10
10
10
10
10
10
10
10
10
10
10
10
10
10
10
10
10
10
10
10
10
10
10
10
10
10
10
10
10
10
10
10
10
10
10
10
10
10
10
10
10
10
10
10
10
10
10
10
10
10
10
10
10
10
10
10
10
10
10
10
10
10
10
10
10
10
10
10
10
10
10
10
10
10
10
10
10
10
10
10
10
10
10
10
10
10
10
10
10
10
10
10
10
10
10
10
10
10
10
10
10
10
10
10
10
10
10
10
10
10
10
10
10
10
10
10
10
10
10
10
10
10
10
10
10
10
10
10
10
10
10
10
10
10
10
10
10
10
10
10
10
10
10
10
10
10
10
10
10
10
10
10
10
10
10
10
10
10
10
10
10
10
10
10
10
10
10
10
10
10
10
10
10
10
10
10
10
10
10
10
10
10
10
10
10
10
10
10
10
10
10
10
10
10
10
10
10
10
10
10
10
10
10
10
10
10
10
10
10
10
10
10
10
10
10
10
10
10
10
10
10
10
10
10
10
10
10
10
10
10
10
10
10
10
10
10
10
10
10
10
10
10
10
10
10
10
10
10
10
10
10
10
10
10
10
10
10
10
10
10
10
10
10
10
10
10
10
10
10
10
10
10
10
10
10
10
10
10
10
10
10
10
10
10
10
10
10
10
10
10
10
10
10
10
10
10
10
10
10
10
10
10
10
10
10
10
10
10
10
10
10
10
10
10
10
10
10
10
10
10
10
10
10
10
10
10
10
10
10
10
10
10
10
10
10
10
10
10
10
10
10
10
10
10
10
10
10
10
10
10
10
10
10
10
10
10
10
10
10
10
10
10
10
10
10
10
10
10
10
10
10
10
10
10
10
10
10
10
10
10
10
10
10
10
10
10
10
10
10
10
10
10
10
10
10
10
10
10
10
10
10
10
10
10
10
10
10
10
10
10
10
10
10
10
10
10
10
10
10
10
10
10
10
10
10
10
10
10
10
10
10
10
10
10
10
10
10
10
10
10
10
10
10
10
10
10
10
10
10
10
10
10
10
10
10
10
10
10
10
10
10
10
10
10
10
10
10
10
10
10
10
10
10
10
10
10
10
10
10
10
10
10
10
10
10
10
10
10
10
10
10
10
10
10
10
10
10
10
10
10
10
10
10
10
10
10
10
10
10
10
10
10
10
10
10
10
10
10
10
10
10
10
10
10
10
10
10
10
10
10
10
10
10
10
10
10
10
10
10
10
10
10
10
10
10
10
10
10
10
10
10
10
10
10
10
10
10
10
10
10
10
10
10
10
10
10
10
10
10
10
10
10
10
10
10
10
10
10
10
10
10
10
10
10
10
10
10
10
10
10
10
10
10
10
10
10
10
10
10
10
10
10
10
10
10
10
10
10
10
10
10
10
10
10
10
10
10
10
10
10
10
10
10
10
10
10
10
10
10
10
10
10
10
10
10
10
10
10
10
10
10
10
10
10
10
10
10
10
10
10
10
10
10
10
10
10
10
10
10
10
10
10
10
10
10
10
10
10
10
10
10
10
10
10
10
10
10
10
10
10
10
10
10
10
10
10
10
10
10
10
10
10
10
10
10
10
10
10
10
10
10
10
10
10
10
10
10
10
10
10
10
10
10
10
10
10
10
10
10
10
10
10
10
10
10
10
10
10
10
10
10
10
10
10
10
10
10
10
10
10
10
10
10
10
10
10
10
10
10
10
10
10
10
10
10
10
10
10
10
10
10
10
10
10
10
10
10
10
10
10
10
10
10
10
10
10
10
10
10
10
10
10
10
10
10
10
10
10
10
10
10
10
10
10
10
10
10
10
10
10
10
10
10
10
10
10
10
10
10
10
10
10
10
10
10
10
10
10
10
10
10
10
10
10
10
10
10
10
10
10
10
10
10
10
10
10
10
10
10
10
10
10
10
10
10
10
10
10
10
10
10
10
10
10
10
10
10
10
10
10
10
10
10
10
10
10
10
10
10
10
10
10
10
10
10
10
10
10
10
10
10
10
10
10
10
10
10
10
10
10
10
10
10
10
10
10
10
10
10
10
10
10
10
10
10
10
10
10
10
10
10
10
10
10
10
10
10
10
10
10
10
10
10
10
10
10
10
10
10
10
10
10
10
10
10
10
10
10
10
10
10
10
10
10
10
10
10
10
10
10
10
10
10
10
10
10
10
10
10
10
10
10
10
10
10
10
10
10
10
10
10
10
10
10
10
10
10
10
10
10
10
10
10
10
10
10
10
10
10
10
10
10
10
10
10
10
10
10
10
10
10
10
10
10
10
10
10
10
10
10
10
10
10
10
10
10
10
10
10
10
10
10
10
10
10
10
10
10
10
10
10
10
10
10
10
10
10
10
10
10
10
10
10
10
10
10
10
10
10
10
10
10
10
10
10
10
10
10
10
10
10
10
10
10
10
10
10
10
10
10
10
10
10
10
10
10
10
10
10
10
10
10
10
10
10
10
10
10
10
10
10
10
10
10
10
10
10
10
10
10
10
10
10
10
10
10
10
10
10
10
10
10
10
10
10
10
10
10
10
10
10
10
10
10
10
10
10
10
10
10
10
10
10
10
10
10
10
10
10
10
10
10
10
10
10
10
10
10
10
10
10
10
10
10
10
10
10
10
10
10
10
10
10
10
10
10
10
10
10
10
10
10
10
10
10
10
10
10
10
10
10
10
10
10
10
10
10
10
10
10
10
10
10
10
10
10
10
10
10
10
10
10
10
10
10
10
10
10
10
10
10
10
10
10
10
10
10
10
10
10
10
10
10
10
10
10
10
10
10
10
10
10
10
10
10
10
10
10
10
10
10
10
10
10
10
10
10
10
10
10
10
10
10
10
10
10
10
10
10
10
10
10
10
10
10
10
10
10
10
10
10
10
10
10
10
10
10
10
10
10
10
10
10
10
10
10
10
10
10
10
10
10
10
10
10
10
10
10
10
10
10
10
10
10
10
10
10
10
10
10
10
10
10
10
10
10
10
10
10
10
10
10
10
10
10
10
10
10
10
10
10
10
10
10
10
10
10
10
10
10
10
10
10
10
10
10
10
10
10
10
10
10
10
10
10
10
10
10
10
10
10
10
10
10
10
10
10
10
10
10
10
10
10
10
10
10
10
10
10
10
10
10
10
10
10
10
10
10
10
10
10
10
10
10
10
10
10
10
10
10
10
10
10
10
10
10
10
10
10
10
10
10
10
10
10
10
10
10
10
10
10
10
10
10
10
10
10
10
10
10
10
10
10
10
10
10
10
10
10
10
10
10
10
10
10
10
10
10
10
10
10
10
10
10
10
10
10
10
10
10
10
10
10
10
10
10
10
10
10
10
10
10
10
10
10
10
10
10
10
10
10
10
10
10
10
10
10
10
10
10
10
10
10
10
10
10
10
10
10
10
10
10
10
10
10
10
10
10
10
10
10
10
10
10
10
10
10
10
10
10
10
10
10
10
10
10
10
10
10
10
10
10
10
10
10
10
10
10
10
10
10
10
10
10
10
10
10
10
10
10
10
10
10
10
10
10
10
10
10
10
10
10
10
10
10
10
10
10
10
10
10
10
10
10
10
10
10
10
10
10
10
10
10
10
10
10
10
10
10
10
10
10
10
10
10
10
10
10
10
10
10
10
10
10
10
10
10
10
10
10
10
10
10
10
10
10
10
10
10
10
10
10
10
10
10
10
10
10
10
10
10
10
10
10
10
10
10
10
10
10
10
10
10
10
10
10
10
10
10
10
10
10
10
10
10
10
10
10
10
10
10
10
10
10
10
10
10
10
10
10
10
10
10
10
10
10
10
10
10
10
10
10
10
10
10
10
10
10
10
10
10
10
10
10
10
10
10
10
10
10
10
10
10
10
10
10
10
10
10
10
10
10
10
10
10
10
10
10
10
10
10
10
10
10
10
10
10
10
10
10
10
10
10
10
10
10
10
10
10
10
10
10
10
10
10
10
10
10
10
10
10
10
10
10
10
10
10
10
10
10
10
10
10
10
10
10
10
10
10
10
10
10
10
10
10
10
10
10
10
10
10
10
10
10
10
10
10
10
10
10
10
10
10
10
10
10
10
10
10
10
10
10
10
10
10
10
10
10
10
10
10
10
10
10
10
10
10
10
10
10
10
10
10
10
10
10
10
10
10
10
10
10
10
10
10
10
10
10
10
10
10
10
10
10
10
10
10
10
10
10
10
10
10
10
10
10
10
10
10
10
10
10
10
10
10
10
10
10
10
10
10
10
10
10
10
10
10
10
10
10
10
10
10
10
10
10
10
10
10
10
10
10
10
10
10
10
10
10
10
10
10
10
10
10
10
10
10
10
10
10
10
10
10
10
10
10
10
10
10
10
10
10
10
10
10
10
10
10
10
10
10
10
10
10
10
10
10
10
10
10
10
10
10
10
10
10
10
10
10
10
10
10
10
10
10
10
10
10
10
10
10
10
10
10
10
10
10
10
10
10
10
10
10
10
10
10
10
10
10
10
10
10
10
10
10
10
10
10
10
10
10
10
10
10
10
10
10
10
10
10
10
10
10
10
10
10
10
10
10
10
10
10
10
10
10
10
10
10
10
10
10
10
10
10
10
10
10
10
10
10
10
10
10
10
10
10
10
10
10
10
10
10
10
10
10
10
10
10
10
10
10
10
10
10
10
10
10
10
10
10
10
10
10
10
10
10
10
10
10
10
10
10
10
10
10
10
10
10
10
10
10
10
10
10
10
10
10
10
10
10
10
10
10
10
10
10
10
10
10
10
10
10
10
10
10
10
10
10
10
10
10
10
10
10
10
10
10
10
10
10
10
10
10
10
10
10
10
10
10
10
10
10
10
10
10
10
10
10
10
10
10
10
10
10
10
10
10
10
10
10
10
10
10
10
10
10
10
10
10
10
10
10
10
10
10
10
10
10
10
10
10
10
10
10
10
10
10
10
10
10
10
10
10
10
10
10
10
10
10
10
10
10
10
10
10
10
10
10
10
10
10
10
10
10
10
10
10
10
10
10
10
10
10
10
10
10
10
10
10
10
10
10
10
10
10
10
10
10
10
10
10
10
10
10
10
10
10
10
10
10
10
10
10
10
10
10
10
10
10
10
10
10
10
10
10
10
10
10
10
10
10
10
10
10
10
10
10
10
10
10
10
10
10
10
10
10
10
10
10
10
10
10
10
10
10
10
10
10
10
10
10
10
10
10
10
10
10
10
10
10
10
10
10
10
10
10
10
10
10
10
10
10
10
10
10
10
10
10
10
10
10
10
10
10
10
10
10
10
10
10
10
10
10
10
10
10
10
10
10
10
10
10
10
10
10
10
10
10
10
10
10
10
10
10
10
10
10
10
10
10
10
10
10
10
10
10
10
10
10
10
10
10
10
10
10
10
10
10
10
10
10
10
10
10
10
10
10
10
10
10
10
10
10
10
10
10
10
10
10
10
10
10
10
10
10
10
10
10
10
10
10
10
10
10
10
10
10
10
10
10
10
10
10
10
10
10
10
10
10
10
10
10
10
10
10
10
10
10
10
10
10
10
10
10
10
10
10
10
10
10
10
10
10
10
10
10
10
10
10
10
10
10
10
10
10
10
10
10
10
10
10
10
10
10
10
10
10
10
10
10
10
10
10
10
10
10
10
10
10
10
10
10
10
10
10
10
10
10
10
10
10
10
10
10
10
10
10
10
10
10
10
10
10
10
10
10
10
10
10
10
10
10
10
10
10
10
10
10
10
10
10
10
10
10
10
10
10
10
10
10
10
10
10
10
10
10
10
10
10
10
10
10
10
10
10
10
10
10
10
10
10
10
10
10
10
10
10
10
10
10
10
10
10
10
10
10
10
10
10
10
10
10
10
10
10
10
10
10
10
10
10
10
10
10
10
10
10
10
10
10
10
10
10
10
10
10
10
10
10
10
10
10
10
10
10
10
10
10
10
10
10
10
10
10
10
10
10
10
10
10
10
10
10
10
10
10
10
10
10
10
10
10
10
10
10
10
10
10
10
10
10
10
10
10
10
10
10
10
10
10
10
10
10
10
10
10
10
10
10
10
10
10
10
10
10
10
10
10
10
10
10
10
10
10
10
10
10
10
10
10
10
10
10
10
10
10
10
10
10
10
10
10
10
10
10
10
10
10
10
10
10
10
10
10
10
10
10
10
10
10
10
10
10
10
10
10
10
10
10
10
10
10
10
10
10
10
10
10
10
10
10
10
10
10
10
10
10
10
10
10
10
10
10
10
10
10
10
10
10
10
10
10
10
10
10
10
10
10
10
10
10
10
10
10
10
10
10
10
10
10
10
10
10
10
10
10
10
10
10
10
10
10
10
10
10
10
10
10
10
10
10
10
10
10
10
10
10
10
10
10
10
10
10
10
10
10
10
10
10
10
10
10
10
10
10
10
10
10
10
10
10
10
10
10
10
10
10
10
10
10
10
10
10
10
10
10
10
10
10
10
10
10
10
10
10
10
10
10
10
10
10
10
10
10
10
10
10
10
10
10
10
10
10
10
10
10
10
10
10
10
10
10
10
10
10
10
10
10
10
10
10
10
10
10
10
10
10
10
10
10
10
10
10
10
10
10
10
10
10
10
10
10
10
10
10
10
10
10
10
10
10
10
10
10
10
10
10
10
10
10
10
10
10
10
10
10
10
10
10
10
10
10
10
10
10
10
10
10
10
10
10
10
10
10
10
10
10
10
10
10
10
10
10
10
10
10
10
10
10
10
10
10
10
10
10
10
10
10
10
10
10
10
10
10
10
10
10
10
10
10
10
10
10
10
10
10
10
10
10
10
10
10
10
10
10
10
10
10
10
10
10
10
10
10
10
10
10
10
10
10
10
10
10
10
10
10
10
10
10
10
10
10
10
10
10
10
10
10
10
10
10
10
10
10
10
10
10
10
10
10
10
10
10
10
10
10
10
10
10
10
10
10
10
10
10
10
10
10
10
10
10
10
10
10
10
10
10
10
10
10
10
10
10
10
10
10
10
10
10
10
10
10
10
10
10
10
10
10
10
10
10
10
10
10
10
10
10
10
10
10
10
10
10
10
10
10
10
10
10
10
10
10
10
10
10
10
10
10
10
10
10
10
10
10
10
10
10
10
10
10
10
10
10
10
10
10
10
10
10
10
10
10
10
10
10
10
10
10
10
10
10
10
10
10
10
10
10
10
10
10
10
10
10
10
10
10
10
10
10
10
10
10
10
10
10
10
10
10
10
10
10
10
10
10
10
10
10
10
10
10
10
10
10
10
10
10
10
10
10
10
10
10
10
10
10
10
10
10
10
10
10
10
10
10
10
10
10
10
10
10
10
10
10
10
10
10
10
10
10
10
10
10
10
10
10
10
10
10
10
10
10
10
10
10
10
10
10
10
10
10
10
10
10
10
10
10
10
10
10
10
10
10
10
10
10
10
10
10
10
10
10
10
10
10
10
10
10
10
10
10
10
10
10
10
10
10
10
10
10
10
10
10
10
10
10
10
10
10
10
10
10
10
10
10
10
10
10
10
10
10
10
10
10
10
10
10
10
10
10
10
10
10
10
10
10
10
10
10
10
10
10
10
10
10
10
10
10
10
10
10
10
10
10
10
10
10
10
10
10
10
10
10
10
10
10
10
10
10
10
10
10
10
10
10
10
10
10
10
10
10
10
10
10
10
10
10
10
10
10
10
10
10
10
10
10
10
10
10
10
10
10
10
10
10
10
10
10
10
10
10
10
10
10
10
10
10
10
10
10
10
10
10
10
10
10
10
10
10
10
10
10
10
10
10
10
10
10
10
10
10
10
10
10
10
10
10
10
10
10
10
10
10
10
10
10
10
10
10
10
10
10
10
10
10
10
10
10
10
10
10
10
10
10
10
10
10
10
10
10
10
10
10
10
10
10
10
10
10
10
10
10
10
10
10
10
10
10
10
10
10
10
10
10
10
10
10
10
10
10
10
10
10
10
10
10
10
10
10
10
10
10
10
10
10
10
10
10
10
10
10
10
10
10
10
10
10
10
10
10
10
10
10
10
10
10
10
10
10
10
10
10
10
10
10
10
10
10
10
10
10
10
10
10
10
10
10
10
10
10
10
10
10
10
10
10
10
10
10
10
10
10
10
10
10
10
10
10
10
10
10
10
10
10
10
10
10
10
10
10
10
10
10
10
10
10
10
10
10
10
10
10
10
10
10
10
10
10
10
10
10
10
10
10
10
10
10
10
10
10
10
10
10
10
10
10
10
10
10
10
10
10
10
10
10
10
10
10
10
10
10
10
10
10
10
10
10
10
10
10
10
10
10
10
10
10
10
10
10
10
10
10
10
10
10
10
10
10
10
10
10
10
10
10
10
10
10
10
10
10
10
10
10
10
10
10
10
10
10
10
10
10
10
10
10
10
10
10
10
10
10
10
10
10
10
10
10
10
10
10
10
10
10
10
10
10
10
10
10
10
10
10
10
10
10
10
10
10
10
10
10
10
10
10
10
10
10
10
10
10
10
10
10
10
10
10
10
10
10
10
10
10
10
10
10
10
10
10
10
10
10
10
10
10
10
10
10
10
10
10
10
10
10
10
10
10
10
10
10
10
10
10
10
10
10
10
10
10
10
10
10
10
10
10
10
10
10
10
10
10
10
10
10
10
10
10
10
10
10
10
10
10
10
10
10
10
10
10
10
10
10
10
10
10
10
10
10
10
10
10
10
10
10
10
10
10
10
10
10
10
10
10
10
10
10
10
10
10
10
10
10
10
10
10
10
10
10
10
10
10
10
10
10
10
10
10
10
10
10
10
10
10
10
10
10
10
10
10
10
10
10
10
10
10
10
10
10
10
10
10
10
10
10
10
10
10
10
10
10
10
10
10
10
10
10
10
10
10
10
10
10
10
10
10
10
10
10
10
10
10
10
10
10
10
10
10
10
10
10
10
10
10
10
10
10
10
10
10
10
10
10
10
10
10
10
10
10
10
10
10
10
10
10
10
10
10
10
10
10
10
10
10
10
10
10
10
10
10
10
10
10
10
10
10
10
10
10
10
10
10
10
10
10
10
10
10
10
10
10
10
10
10
10
10
10
10
10
10
10
10
10
10
10
10
10
10
10
10
10
10
10
10
10
10
10
10
10
10
10
10
10
10
10
10
10
10
10
10
10
10
10
10
10
10
10
10
10
10
10
10
10
10
10
10
10
10
10
10
10
10
10
10
10
10
10
10
10
10
10
10
10
10
10
10
10
10
10
10
10
10
10
10
10
10
10
10
10
10
10
10
10
10
10
10
10
10
10
10
10
10
10
10
10
10
10
10
10
10
10
10
10
10
10
10
10
10
10
10
10
10
10
10
10
10
10
10
10
10
10
10
10
10
10
10
10
10
10
10
10
10
10
10
10
10
10
10
10
10
10
10
10
10
10
10
10
10
10
10
10
10
10
10
10
10
10
10
10
10
10
10
10
10
10
10
10
10
10
10
10
10
10
10
10
10
10
10
10
10
10
10
10
10
10
10
10
10
10
10
10
10
10
10
10
10
10
10
10
10
10
10
10
10
10
10
10
10
10
10
10
10
10
10
10
10
10
10
10
10
10
10
10
10
10
10
10
10
10
10
10
10
10
10
10
10
10
10
10
10
10
10
10
10
10
10
10
10
10
10
10
10
10
10
10
10
10
10
10
10
10
10
10
10
10
10
10
10
10
10
10
10
10
10
10
10
10
10
10
10
10
10
10
10
10
10
10
10
10
10
10
10
10
10
10
10
10
10
10
10
10
10
10
10
10
10
10
10
10
10
10
10
10
10
10
10
10
10
10
10
10
10
10
10
10
10
10
10
10
10
10
10
10
10
10
10
10
10
10
10
10
10
10
10
10
10
10
10
10
10
10
10
10
10
10
10
10
10
10
10
10
10
10
10
10
10
10
10
10
10
10
10
10
10
10
10
10
10
10
10
10
10
10
10
10
10
10
10
10
10
10
10
10
10
10
10
10
10
10
10
10
10
10
10
10
10
10
10
10
10
10
10
10
10
10
10
10
10
10
10
10
10
10
10
10
10
10
10
10
10
10
10
10
10
10
10
10
10
10
10
10
10
10
10
10
10
10
10
10
10
10
10
10
10
10
10
10
10
10
10
10
10
10
10
10
10
10
10
10
10
10
10
10
10
10
10
10
10
10
10
10
10
10
10
10
10
10
10
10
10
10
10
10
10
10
10
10
10
10
10
10
10
10
10
10
10
10
10
10
10
10
10
10
10
10
10
10
10
10
10
10
10
10
10
10
10
10
10
10
10
10
10
10
10
10
10
10
10
10
10
10
10
10
10
10
10
10
10
10
10
10
10
10
10
10
10
10
10
10
10
10
10
10
10
10
10
10
10
10
10
10
10
10
10
10
10
10
10
10
10
10
10
10
10
10
10
10
10
10
10
10
10
10
10
10
10
10
10
10
10
10
10
10
10
10
10
10
10
10
10
10
10
10
10
10
10
10
10
10
10
10
10
10
10
10
10
10
10
10
10
10
10
10
10
10
10
10
10
10
10
10
10
10
10
10
10
10
10
10
10
10
10
10
10
10
10
10
10
10
10
10
10
10
10
10
10
10
10
10
10
10
10
10
10
10
10
10
10
10
10
10
10
10
10
10
10
10
10
10
10
10
10
10
10
10
10
10
10
10
10
10
10
10
10
10
10
10
10
10
10
10
10
10
10
10
10
10
10
10
10
10
10
10
10
10
10
10
10
10
10
10
10
10
10
10
10
10
10
10
10
10
10
10
10
10
10
10
10
10
10
10
10
10
10
10
10
10
10
10
10
10
10
10
10
10
10
10
10
10
10
10
10
10
10
10
10
10
10
10
10
10
10
10
10
10
10
10
10
10
10
10
10
10
10
10
10
10
10
10
10
10
10
10
10
10
10
10
10
10
10
10
10
10
10
10
10
10
10
10
10
10
10
10
10
10
10
10
10
10
10
10
10
10
10
10
10
10
10
10
10
10
10
10
10
10
10
10
10
10
10
10
10
10
10
10
10
10
10
10
10
10
10
10
10
10
10
10
10
10
10
10
10
10
10
10
10
10
10
10
10
10
10
10
10
10
10
10
10
10
10
10
10
10
10
10
10
10
10
10
10
10
10
10
10
10
10
10
10
10
10
10
10
10
10
10
10
10
10
10
10
10
10
10
10
10
10
10
10
10
10
10
10
10
10
10
10
10
10
10
10
10
10
10
10
10
10
10
10
10
10
10
10
10
10
10
10
10
10
10
10
10
10
10
10
10
10
10
10
10
10
10
10
10
10
10
10
10
10
10
10
10
10
10
10
10
10
10
10
10
10
10
10
10
10
10
10
10
10
10
10
10
10
10
10
10
10
10
10
10
10
10
10
10
10
10
10
10
10
10
10
10
10
10
10
10
10
10
10
10
10
10
10
10
10
10
10
10
10
10
10
10
10
10
10
10
10
10
10
10
10
10
10
10
10
10
10
10
10
10
10
10
10
10
10
10
10
10
10
10
10
10
10
10
10
10
10
10
10
10
10
10
10
10
10
10
10
10
10
10
10
10
10
10
10
10
10
10
10
10
10
10
10
10
10
10
10
10
10
10
10
10
10
10
10
10
10
10
10
10
10
10
10
10
10
10
10
10
10
10
10
10
10
10
10
10
10
10
10
10
10
10
10
10
10
10
10
10
10
10
10
10
10
10
10
10
10
10
10
10
10
10
10
10
10
10
10
10
10
10
10
10
10
10
10
10
10
10
10
10
10
10
10
10
10
10
10
10
10
10
10
10
10
10
10
10
10
10
10
10
10
10
10
10
10
10
10
10
10
10
10
10
10
10
10
10
10
10
10
10
10
10
10
10
10
10
10
10
10
10
10
10
10
10
10
10
10
10
10
10
10
10
10
10
10
10
10
10
10
10
10
10
10
10
10
10
10
10
10
10
10
10
10
10
10
10
10
10
10
10
10
10
10
10
10
10
10
10
10
10
10
10
10
10
10
10
10
10
10
10
10
10
10
10
10
10
10
10
10
10
10
10
10
10
10
10
10
10
10
10
10
10
10
10
10
10
10
10
10
10
10
10
10
10
10
10
10
10
10
10
10
10
10
10
10
10
10
10
10
10
10
10
10
10
10
10
10
10
10
10
10
10
10
10
10
10
10
10
10
10
10
10
10
10
10
10
10
10
10
10
10
10
10
10
10
10
10
10
10
10
10
10
10
10
10
10
10
10
10
10
10
10
10
10
10
10
10
10
10
10
10
10
10
10
10
10
10
10
10
10
10
10
10
10
10
10
10
10
10
10
10
10
10
10
10
10
10
10
10
10
10
10
10
10
10
10
10
10
10
10
10
10
10
10
10
10
10
10
10
10
10
10
10
10
10
10
10
10
10
10
10
10
10
10
10
10
10
10
10
10
10
10
10
10
10
10
10
10
10
10
10
10
10
10
10
10
10
10
10
10
10
10
10
10
10
10
10
10
10
10
10
10
10
10
10
10
10
10
10
10
10
10
10
10
10
10
10
10
10
10
10
10
10
10
10
10
10
10
10
10
10
10
10
10
10
10
10
10
10
10
10
10
10
10
10
10
10
10
10
10
10
10
10
10
10
10
10
10
10
10
10
10
10
10
10
10
10
10
10
10
10
10
10
10
10
10
10
10
10
10
10
10
10
10
10
10
10
10
10
10
10
10
10
10
10
10
10
10
10
10
10
10
10
10
10
10
10
10
10
10
10
10
10
10
10
10
10
10
10
10
10
10
10
10
10
10
10
10
10
10
10
10
10
10
10
10
10
10
10
10
10
10
10
10
10
10
10
10
10
10
10
10
10
10
10
10
10
10
10
10
10
10
10
10
10
10
10
10
10
10
10
10
10
10
10
10
10
10
10
10
10
10
10
10
10
10
10
10
10
10
10
10
10
10
10
10
10
10
10
10
10
10
10
10
10
10
10
10
10
10
10
10
10
10
10
10
10
10
10
10
10
10
10
10
10
10
10
10
10
10
10
10
10
10
10
10
10
10
10
10
10
10
10
10
10
10
10
10
10
10
10
10
10
10
10
10
10
10
10
10
10
10
10
10
10
10
10
10
10
10
10
10
10
10
10
10
10
10
10
10
10
10
10
10
10
10
10
10
10
10
10
10
10
10
10
10
10
10
10
10
10
10
10
10
10
10
10
10
10
10
10
10
10
10
10
10
10
10
10
10
10
10
10
10
10
10
10
10
10
10
10
10
10
10
10
10
10
10
10
10
10
10
10
10
10
10
10
10
10
10
10
10
10
10
10
10
10
10
10
10
10
10
10
10
10
10
10
10
10
10
10
10
10
10
10
10
10
10
10
10
10
10
10
10
10
10
10
10
10
10
10
10
10
10
10
10
10
10
10
10
10
10
10
10
10
10
10
10
10
10
10
10
10
10
10
10
10
10
10
10
10
10
10
10
10
10
10
10
10
10
10
10
10
10
10
10
10
10
10
10
10
10
10
10
10
10
10
10
10
10
10
10
10
10
10
10
10
10
10
10
10
10
10
10
10
10
10
10
10
10
10
10
10
10
10
10
10
10
10
10
10
10
10
10
10
10
10
10
10
10
10
10
10
10
10
10
10
10
10
10
10
10
10
10
10
10
10
10
10
10
10
10
10
10
10
10
10
10
10
10
10
10
10
10
10
10
10
10
10
10
10
10
10
10
10
10
10
10
10
10
10
10
10
10
10
10
10
10
10
10
10
10
10
10
10
10
10
10
10
10
10
10
10
10
10
10
10
10
10
10
10
10
10
10
10
10
10
10
10
10
10
10
10
10
10
10
10
10
10
10
10
10
10
10
10
10
10
10
10
10
10
10
10
10
10
10
10
10
10
10
10
10
10
10
10
10
10
10
10
10
10
10
10
10
10
10
10
10
10
10
10
10
10
10
10
10
10
10
10
10
10
10
10
10
10
10
10
10
10
10
10
10
10
10
10
10
10
10
10
10
10
10
10
10
10
10
10
10
10
10
10
10
10
10
10
10
10
10
10
10
10
10
10
10
10
10
10
10
10
10
10
10
10
10
10
10
10
10
10
10
10
10
10
10
10
10
10
10
10
10
10
10
10
10
10
10
10
10
10
10
10
10
10
10
10
10
10
10
10
10
10
10
10
10
10
10
10
10
10
10
10
10
10
10
10
10
10
10
10
10
10
10
10
10
10
10
10
10
10
10
10
10
10
10
10
10
10
10
10
10
10
10
10
10
10
10
10
10
10
10
10
10
10
10
10
10
10
10
10
10
10
10
10
10
10
10
10
10
10
10
10
10
10
10
10
10
10
10
10
10
10
10
10
10
10
10
10
10
10
10
10
10
10
10
10
10
10
10
10
10
10
10
10
10
10
10
10
10
10
10
10
10
10
10
10
10
10
10
10
10
10
10
10
10
10
10
10
10
10
10
10
10
10
10
10
10
10
10
10
10
10
10
10
10
10
10
10
10
10
10
10
10
10
10
10
10
10
10
10
10
10
10
10
10
10
10
10
10
10
10
10
10
10
10
10
10
10
10
10
10
10
10
10
10
10
10
10
10
10
10
10
10
10
10
10
10
10
10
10
10
10
10
10
10
10
10
10
10
10
10
10
10
10
10
10
10
10
10
10
10
10
10
10
10
10
10
10
10
10
10
10
10
10
10
10
10
10
10
10
10
10
10
10
10
10
10
10
10
10
10
10
10
10
10
10
10
10
10
10
10
10
10
10
10
10
10
10
10
10
10
10
10
10
10
10
10
10
10
10
10
10
10
10
10
10
10
10
10
10
10
10
10
10
10
10
10
10
10
10
10
10
10
10
10
10
10
10
10
10
10
10
10
10
10
10
10
10
10
10
10
10
10
10
10
10
10
10
10
10
10
10
10
10
10
10
10
10
10
10
10
10
10
10
10
10
10
10
10
10
10
10
10
10
10
10
10
10
10
10
10
10
10
10
10
10
10
10
10
10
10
10
10
10
10
10
10
10
10
10
10
10
10
10
10
10
10
10
10
10
10
10
10
10
10
10
10
10
10
10
10
10
10
10
10
10
10
10
10
10
10
10
10
10
10
10
10
10
10
10
10
10
10
10
10
10
10
10
10
10
10
10
10
10
10
10
10
10
10
10
10
10
10
10
10
10
10
10
10
10
10
10
10
10
10
10
10
10
10
10
10
10
10
10
10
10
10
10
10
10
10
10
10
10
10
10
10
10
10
10
10
10
10
10
10
10
10
10
10
10
10
10
10
10
10
10
10
10
10
10
10
10
10
10
10
10
10
10
10
10
10
10
10
10
10
10
10
10
10
10
10
10
10
10
10
10
10
10
10
10
10
10
10
10
10
10
10
10
10
10
10
10
10
10
10
10
10
10
10
10
10
10
10
10
10
10
10
10
10
10
10
10
10
10
10
10
10
10
10
10
10
10
10
10
10
10
10
10
10
10
10
10
10
10
10
10
10
10
10
10
10
10
10
10
10
10
10
10
10
10
10
10
10
10
10
10
10
10
10
10
10
10
10
10
10
10
10
10
10
10
10
10
10
10
10
10
10
10
10
10
10
10
10
10
10
10
10
10
10
10
10
10
10
10
10
10
10
10
10
10
10
10
10
10
10
10
10
10
10
10
10
10
10
10
10
10
10
10
10
10
10
10
10
10
10
10
10
10
10
10
10
10
10
10
10
10
10
10
10
10
10
10
10
10
10
10
10
10
10
10
10
10
10
10
10
10
10
10
10
10
10
10
10
10
10
10
10
10
10
10
10
10
10
10
10
10
10
10
10
10
10
10
10
10
10
10
10
10
10
10
10
10
10
10
10
10
10
10
10
10
10
10
10
10
10
10
10
10
10
10
10
10
10
10
10
10
10
10
10
10
10
10
10
10
10
10
10
10
10
10
10
10
10
10
10
10
10
10
10
10
10
10
10
10
10
10
10
10
10
10
10
10
10
10
10
10
10
10
10
10
10
10
10
10
10
10
10
10
10
10
10
10
10
10
10
10
10
10
10
10
10
10
10
10
10
10
10
10
10
10
10
10
10
10
10
10
10
10
10
10
10
10
10
10
10
10
10
10
10
10
10
10
10
10
10
10
10
10
10
10
10
10
10
10
10
10
10
10
10
10
10
10
10
10
10
10
10
10
10
10
10
10
10
10
10
10
10
10
10
10
10
10
10
10
10
10
10
10
10
10
10
10
10
10
10
10
10
10
10
10
10
10
10
10
10
10
10
10
10
10
10
10
10
10
10
10
10
10
10
10
10
10
10
10
10
10
10
10
10
10
10
10
10
10
10
10
10
10
10
10
10
10
10
10
10
10
10
10
10
10
10
10
10
10
10
10
10
10
10
10
10
10
10
10
10
10
10
10
10
10
10
10
10
10
10
10
10
10
10
10
10
10
10
10
10
10
10
10
10
10
10
10
10
10
10
10
10
10
10
10
10
10
10
10
10
10
10
10
10
10
10
10
10
10
10
10
10
10
10
10
10
10
10
10
10
10
10
10
10
10
10
10
10
10
10
10
10
10
10
10
10
10
10
10
10
10
10
10
10
10
10
10
10
10
10
10
10
10
10
10
10
10
10
10
10
10
10
10
10
10
10
10
10
10
10
10
10
10
10
10
10
10
10
10
10
10
10
10
10
10
10
10
10
10
10
10
10
10
10
10
10
10
10
10
10
10
10
10
10
10
10
10
10
10
10
10
10
10
10
10
10
10
10
10
10
10
10
10
10
10
10
10
10
10
10
10
10
10
10
10
10
10
10
10
10
10
10
10
10
10
10
10
10
10
10
10
10
10
10
10
10
10
10
10
10
10
10
10
10
10
10
10
10
10
10
10
10
10
10
10
10
10
10
10
10
10
10
10
10
10
10
10
10
10
10
10
10
10
10
10
10
10
10
10
10
10
10
10
10
10
10
10
10
10
10
10
10
10
10
10
10
10
10
10
10
10
10
10
10
10
10
10
10
10
10
10
10
10
10
10
10
10
10
10
10
10
10
10
10
10
10
10
10
10
10
10
10
10
10
10
10
10
10
10
10
10
10
10
10
10
10
10
10
10
10
10
10
10
10
10
10
10
10
10
10
10
10
10
10
10
10
10
10
10
10
10
10
10
10
10
10
10
10
10
10
10
10
10
10
10
10
10
10
10
10
10
10
10
10
10
10
10
10
10
10
10
10
10
10
10
10
10
10
10
10
10
10
10
10
10
10
10
10
10
10
10
10
10
10
10
10
10
10
10
10
10
10
10
10
10
10
10
10
10
10
10
10
10
10
10
10
10
10
10
10
10
10
10
10
10
10
10
10
10
10
10
10
10
10
10
10
10
10
10
10
10
10
10
10
10
10
10
10
10
10
10
10
10
10
10
10
10
10
10
10
10
10
10
10
10
10
10
10
10
10
10
10
10
10
10
10
10
10
10
10
10
10
10
10
10
10
10
10
10
10
10
10
10
10
10
10
10
10
10
10
10
10
10
10
10
10
10
10
10
10
10
10
10
10
10
10
10
10
10
10
10
10
10
10
10
10
10
10
10
10
10
10
10
10
10
10
10
10
10
10
10
10
10
10
10
10
10
10
10
10
10
10
10
10
10
10
10
10
10
10
10
10
10
10
10
10
10
10
10
10
10
10
10
10
10
10
10
10
10
10
10
10
10
10
10
10
10
10
10
10
10
10
10
10
10
10
10
10
10
10
10
10
10
10
10
10
10
10
10
10
10
10
10
10
10
10
10
10
10
10
10
10
10
10
10
10
10
10
10
10
10
10
10
10
10
10
10
10
10
10
10
10
10
10
10
10
10
10
10
10
10
10
10
10
10
10
10
10
10
10
10
10
10
10
10
10
10
10
10
10
10
10
10
10
10
10
10
10
10
10
10
10
10
10
10
10
10
10
10
10
10
10
10
10
10
10
10
10
10
10
10
10
10
10
10
10
10
10
10
10
10
10
10
10
10
10
10
10
10
10
10
10
10
10
10
10
10
10
10
10
10
10
10
10
10
10
10
10
10
10
10
10
10
10
10
10
10
10
10
10
10
10
10
10
10
10
10
10
10
10
10
10
10
10
10
10
10
10
10
10
10
10
10
10
10
10
10
10
10
10
10
10
10
10
10
10
10
10
10
10
10
10
10
10
10
10
10
10
10
10
10
10
10
10
10
10
10
10
10
10
10
10
10
10
10
10
10
10
10
10
10
10
10
10
10
10
10
10
10
10
10
10
10
10
10
10
10
10
10
10
10
10
10
10
10
10
10
10
10
10
10
10
10
10
10
10
10
10
10
10
10
10
10
10
10
10
10
10
10
10
10
10
10
10
10
10
10
10
10
10
10
10
10
10
10
10
10
10
10
10
10
10
10
10
10
10
10
10
10
10
10
10
10
10
10
10
10
10
10
10
10
10
10
10
10
10
10
10
10
10
10
10
10
10
10
10
10
10
10
10
10
10
10
10
10
10
10
10
10
10
10
10
10
10
10
10
10
10
10
10
10
10
10
10
10
10
10
10
10
10
10
10
10
10
10
10
10
10
10
10
10
10
10
10
10
10
10
10
10
10
10
10
10
10
10
10
10
10
10
10
10
10
10
10
10
10
10
10
10
10
10
10
10
10
10
10
10
10
10
10
10
10
10
10
10
10
10
10
10
10
10
10
10
10
10
10
10
10
10
10
10
10
10
10
10
10
10
10
10
10
10
10
10
10
10
10
10
10
10
10
10
10
10
10
10
10
10
10
10
10
10
10
10
10
10
10
10
10
10
10
10
10
10
10
10
10
10
10
10
10
10
10
10
10
10
10
10
10
10
10
10
10
10
10
10
10
10
10
10
10
10
10
10
10
10
10
10
10
10
10
10
10
10
10
10
10
10
10
10
10
10
10
10
10
10
10
10
10
10
10
10
10
10
10
10
10
10
10
10
10
10
10
10
10
10
10
10
10
10
10
10
10
10
10
10
10
10
10
10
10
10
10
10
10
10
10
10
10
10
10
10
10
10
10
10
10
10
10
10
10
10
10
10
10
10
10
10
10
10
10
10
10
10
10
10
10
10
10
10
10
10
10
10
10
10
10
10
10
10
10
10
10
10
10
10
10
10
10
10
10
10
10
10
10
10
10
10
10
10
10
10
10
10
10
10
10
10
10
10
10
10
10
10
10
10
10
10
10
10
10
10
10
10
10
10
10
10
10
10
10
10
10
10
10
10
10
10
10
10
10
10
10
10
10
10
10
10
10
10
10
10
10
10
10
10
10
10
10
10
10
10
10
10
10
10
10
10
10
10
10
10
10
10
10
10
10
10
10
10
10
10
10
10
10
10
10
10
10
10
10
10
10
10
10
10
10
10
10
10
10
10
10
10
10
10
10
10
10
10
10
10
10
10
10
10
10
10
10
10
10

CELL_DATA 15232
SCALARS EQ_STRESS double
LOOKUP_TABLE default
44.2718 53.895 43.1015 45.9129 52.8021 49.0966 52.8972 50.6989 53.9129 
51.1053 58.2554 51.5634 51.5674 50.3051 62.9626 51.5641 52.2341 57.8206 
50.8465 50.8301 65.976 54.0577 50.8403 50.7428 50.4165 46.0575 52.6504 
47.732 50.8478 50.4432 50.4249 53.5956 47.9982 53.671 50.9586 51.6422 
51.0006 54.3144 50.6741 51.3749 48.5867 65.9469 50.9725 52.5883 50.9224 
53.8275 47.1326 68.6206 50.1002 52.9057 51.3564 67.8875 53.3525 53.7712 
60.0444 52.7975 49.9473 62.2669 51.5186 50.7113 51.9671 51.9971 50.4203 
52.4794 63.0628 52.6324 50.9061 60.2646 54.2977 52.3975 46.9674 59.1493 
51.8344 50.9241 64.8333 47.3171 43.6344 47.4037 55.5632 57.1236 67.4569 
51.0643 51.0332 52.9258 50.9025 53.5927 53.3486 51.839 47.1153 50.017 
60.6274 50.4816 55.6584 51.1838 53.9932 51.5893 48.6267 52.7006 50.7433 
52.15 44.4851 52.776 67.7837 66.0287 57.754 68.4217 50.1631 50.1341 
49.7727 50.1703 51.2822 51.8806 53.2501 50.6564 50.4856 50.6709 50.8068 
51.7356 53.9405 53.714 50.8642 52.0099 50.9199 51.4136 52.3138 51.1877 
52.0015 51.0433 61.647 50.1194 51.4683 52.7805 56.0894 50.4857 52.2604 
50.7591 50.7759 53.1058 50.8615 50.1205 49.3113 43.8082 53.9857 53.0157 
57.5876 50.4363 43.1024 43.8951 61.3756 51.6751 53.9568 52.3332 50.5466 
50.2842 51.0351 50.4979 50.3783 54.54 51.1125 48.5984 43.9555 42.9188 
51.0549 50.8428 54.0489 50.5322 51.3969 50.9084 46.7197 51.7079 50.6847 
46.2309 46.5052 53.4336 50.8086 50.4776 48.4043 54.7967 51.4016 52.6087 
53.992 50.8253 53.2919 50.266 47.6259 50.327 48.5558 50.9787 46.9734 
49.5388 48.9716 48.3352 44.8176 55.8557 51.4205 46.0795 52.6781 50.0452 
44.2566 44.7682 48.147 52.2278 53.4904 48.3192 50.641 52.2743 50.662 
51.0025 51.58 51.2604 56.5684 50.9554 43.3561 43.5694 51.4089 54.0751 
56.1464 42.6288 50.6037 51.7081 58.4734 50.9644 50.9461 64.2773 55.1743 
48.1786 51.4322 45.588 51.0148 50.4442 51.2746 53.397 50.8783 51.1087 
50.6497 48.4398 51.9955 50.5997 52.7578 54.5873 49.9873 51.3302 73.2685 
50.4749 51.6478 49.4715 50.0081 50.3698 50.7277 48.1928 52.8094 53.7182 
50.3323 51.1836 45.4145 59.177 51.571 51.0532 53.4809 50.7942 50.7409 
61.5611 65.1636 56.0993 50.8044 50.8093 50.5437 48.062 55.838 49.7855 
52.9072 50.2668 70.0572 50.8159 50.8065 50.338 53.0082 52.8924 49.5612 
53.8642 50.8287 51.0426 47.3864 50.7669 50.677 57.0078 52.4356 57.5027 
50.7855 50.0516 55.2871 45.5981 48.6701 54.1836 51.0145 50.8788 51.376 
68.6203 63.3627 51.7065 51.8916 51.0963 53.0775 50.2884 55.7579 50.4423 
50.273 50.621 54.5256 50.5728 53.6048 50.8437 51.4904 64.4436 57.1906 
66.3487 49.6551 51.3416 53.8907 45.346 51.9929 51.6673 50.3746 50.1475 
50.1827 51.2587 50.4045 51.0201 52.9566 51.203 53.5417 51.0248 50.7834 
51.5736 51.1938 51.1383 50.7037 50.9557 46.0907 51.5594 49.7454 50.7669 
50.5475 50.9268 50.7299 52.3063 53.1924 51.2323 54.0822 51.0785 51.5262 
50.3996 51.1528 50.9998 45.1944 50.8202 48.6674 50.8517 50.4957 50.9886 
51.6933 50.7342 51.2822 50.9774 50.6214 50.9688 50.7474 50.8062 64.2573 
61.7554 68.1298 57.8371 51.1292 46.3748 47.2177 53.1858 50.1811 61.0134 
47.4594 50.145 61.3296 64.2693 50.6722 50.7053 50.9801 51.1045 52.8 
48.3923 49.1134 52.2562 51.9298 50.5835 51.2231 49.0595 50.5845 54.564 
68.1009 50.8453 50.5723 50.7085 65.4618 51.0331 53.2203 53.7919 50.8259 
50.7393 50.3 51.842 50.0649 50.1633 49.979 53.898 51.9126 50.0411 
49.9877 60.0468 53.1827 53.4702 47.1446 44.7166 53.4398 52.6013 44.2128 
53.4595 53.1089 52.9901 50.9183 50.9131 62.6701 50.7064 50.8488 66.4338 
49.9605 50.911 54.0598 52.2891 53.8317 53.9874 53.0223 50.9532 53.3288 
66.9348 52.0127 50.655 52.5561 50.4271 50.2978 50.4911 55.4145 60.0423 
51.6717 57.7391 47.3678 52.902 50.4763 51.2089 49.9448 52.3933 51.8022 
49.0202 50.1446 51.1539 50.2259 50.4864 51.0357 50.959 68.263 51.7167 
64.3758 50.9244 62.3374 51.3858 55.732 48.8999 50.1787 50.0919 50.8294 
50.63 50.2218 52.9675 51.3966 53.9705 51.23 47.7738 50.7971 50.7391 
60.4146 51.9576 47.0001 50.7039 52.6052 52.9228 57.8113 69.0716 53.0533 
53.2897 50.7092 52.1649 52.9503 53.7887 54.2297 53.932 50.8074 51.3936 
44.8232 43.4628 43.3491 43.838 51.7425 43.5676 48.4284 46.5388 53.37 
62.8235 50.2403 52.2729 51.6089 51.7629 65.1277 59.6219 55.2148 50.913 
54.2515 53.9105 53.9083 58.3179 62.7826 64.0775 60.113 51.3039 57.8548 
51.0322 53.6619 53.2986 50.6969 50.3846 60.2121 50.5232 52.3163 52.9142 
52.2433 48.9756 52.3597 55.1461 50.1643 50.8356 46.5559 48.4468 50.7637 
52.2054 50.6364 52.9987 50.5188 50.7526 52.7102 44.0273 48.0372 57.9532 
51.7613 52.6029 50.4849 50.8063 51.3078 53.1215 50.8466 44.016 51.3567 
44.1921 52.2324 50.2814 48.2082 50.822 51.5211 50.7913 51.2402 50.8772 
50.9161 53.9806 51.0152 51.9304 65.5985 50.5491 50.2107 54.0996 53.729 
51.8629 52.1655 51.2275 65.7434 48.3724 50.3646 50.704 50.795 50.7838 
55.9981 53.0548 53.8906 53.4926 51.2718 50.9969 51.1139 50.719 50.2478 
50.8218 50.605 51.9755 50.8621 51.562 51.3839 59.7452 43.2089 45.156 
51.5516 43.9582 52.8855 50.8967 50.2852 51.0213 53.0974 53.2707 52.6979 
51.1008 52.1992 51.051 54.2399 52.5144 50.8495 52.1099 51.8959 49.4733 
57.0568 58.0992 44.8022 47.7784 49.0581 46.6468 50.1843 58.8276 50.8313 
55.7194 57.698 52.1399 62.3093 53.6332 53.7286 54.0363 54.0731 50.6168 
51.0932 51.0795 51.1663 50.9096 50.8089 51.1718 61.5181 50.7624 53.2359 
51.9222 52.5778 51.0638 50.7111 50.6935 50.9239 53.9691 51.5385 50.9001 
53.7181 53.1742 50.6087 47.7314 46.4974 50.8284 50.5077 48.3033 50.4449 
52.5247 53.4327 51.2449 51.4001 51.343 50.7066 51.1699 50.4735 53.8826 
54.1735 50.4596 50.6939 50.5431 50.8783 50.964 51.4959 55.3027 50.1545 
56.8908 50.0513 51.0226 50.6549 50.0882 51.8108 50.5357 51.058 51.9613 
54.0448 53.7128 53.5769 52.1055 51.4798 50.0414 44.4747 45.6764 43.5118 
45.6179 43.4593 50.6698 50.7444 51.8089 50.7482 51.1916 47.514 45.2137 
67.3179 57.9176 53.9362 56.0453 52.5542 50.9191 51.5494 51.0294 51.4722 
45.0631 47.3524 56.3486 50.9691 50.8212 51.0564 52.2414 51.5832 73.1845 
51.448 52.9131 51.2157 50.9668 53.2709 50.2096 50.8618 50.2043 53.5136 
50.3268 50.8038 50.9634 50.8947 51.4369 51.2693 47.9924 47.1856 50.3598 
52.7396 50.02 50.0764 52.4549 54.0978 51.1402 51.1519 50.5763 50.7603 
71.8146 49.1293 53.3895 52.5877 52.9741 50.5184 52.4114 47.1722 48.6234 
46.2744 53.7853 45.0556 51.5201 51.3681 52.3629 53.7163 52.3389 64.625 
62.9207 50.7433 68.5095 59.1774 50.7705 51.2327 50.8526 63.6222 56.3686 
51.1529 46.0515 45.0544 45.3862 42.9872 50.9085 50.7099 50.626 46.8917 
46.4545 44.5547 51.4756 50.6689 50.8467 50.9567 50.7617 53.2636 51.358 
52.2428 50.6349 50.9127 50.5224 53.3181 53.3623 50.0237 51.6837 66.8505 
66.513 63.1938 63.2594 51.7001 51.5886 51.5768 52.946 50.3771 45.4626 
50.3721 51.9026 44.3955 50.3508 50.5651 50.9505 50.5477 50.4833 50.9454 
54.1074 50.7338 50.8107 53.3858 50.6802 51.7991 50.9683 68.2863 51.1232 
53.8135 50.2751 51.2314 50.7794 48.9771 51.0048 51.4905 50.9505 50.6887 
53.1832 53.4727 52.3807 51.0224 46.0579 46.3479 55.5042 47.702 45.9553 
55.5311 50.5269 50.4505 50.7172 52.9528 55.037 68.7427 50.2876 50.1693 
57.4783 46.0631 48.0092 45.0228 44.055 48.3894 47.8032 52.581 46.4998 
46.5536 59.2452 50.3441 53.9245 51.1419 48.8926 53.842 46.6836 57.6844 
64.0155 42.4434 45.2817 43.5251 47.1219 48.0064 60.5454 49.4165 51.9358 
50.6243 53.7935 55.7045 59.781 75.469 63.9705 48.5529 64.7762 54.5396 
55.5432 56.168 47.9967 51.7235 46.6677 44.1522 52.1763 52.8077 48.853 
52.991 51.3009 51.0491 50.6438 50.6191 50.157 51.6826 50.7438 53.1183 
56.5364 47.4436 50.5469 50.5286 68.0294 51.4513 53.1723 52.6115 57.9132 
53.2159 51.0142 52.6949 51.3561 68.1329 50.9376 75.3571 74.7188 58.1961 
60.1242 53.1413 50.8673 54.9791 59.6522 52.1752 52.8822 50.6838 52.6117 
50.7281 50.9374 51.1573 50.4248 52.0466 50.7094 50.7275 51.7748 50.2307 
51.5378 50.2211 51.9479 50.334 50.017 67.871 50.8457 51.4982 51.5362 
51.2049 50.8833 50.2492 52.454 50.9808 53.845 53.9679 51.8711 50.8639 
50.8925 50.9063 49.3299 42.6572 44.5921 50.7805 51.2885 61.7881 50.4702 
51.3532 50.8178 50.8278 51.2215 49.2693 48.4965 52.0696 50.6962 50.485 
53.2251 51.9608 51.4311 52.5457 52.9802 66.6481 59.122 51.2345 53.2926 
59.53 50.8697 50.9123 50.8989 51.2924 51.0383 51.7174 51.2283 50.9688 
50.9865 50.7349 50.9206 50.8649 50.1299 47.3774 59.157 48.6549 45.3749 
51.7731 50.1615 66.9811 64.5236 50.5584 50.5625 50.9213 49.979 48.7248 
50.9327 47.4426 53.905 51.1429 51.5168 45.2748 50.6043 48.3243 53.608 
49.1499 50.6696 51.4685 50.598 46.5012 54.6386 50.3768 47.9328 50.7169 
50.2663 50.7379 51.5186 51.6094 50.9092 50.1716 50.4292 53.117 52.4438 
50.2305 50.5065 49.8486 53.8104 57.1999 50.6586 50.5519 51.7815 51.2575 
51.4299 52.881 51.6168 55.5176 54.0427 53.9558 68.3777 62.9442 67.3159 
69.6955 47.1528 54.6385 49.8864 50.8373 50.9694 50.8895 49.5609 50.1229 
51.6171 51.3976 50.8497 58.4014 69.8474 54.2045 54.7915 51.1378 51.5262 
50.0225 50.3693 50.8623 52.1249 55.9583 67.4201 54.6407 50.6967 54.8666 
58.4186 51.3944 52.7722 52.081 53.5871 50.957 53.281 51.0033 47.3587 
51.5162 50.8861 50.8468 56.4198 51.1399 53.6594 50.7713 53.8455 53.4786 
53.6191 53.9502 63.7566 69.1055 52.2186 54.647 53.2819 44.4173 53.2286 
50.8364 56.4358 51.384 52.0342 51.0441 67.6721 51.0784 51.5238 51.1965 
65.6679 52.4875 52.937 50.7987 48.6512 52.0943 50.3773 58.8542 52.23 
53.9801 53.6713 54.1674 53.9929 54.2024 51.1129 62.3975 55.2571 61.5864 
62.2818 46.0828 44.1177 46.3977 46.3157 51.9726 53.3215 53.1992 48.8444 
53.4014 53.9082 69.9366 51.3492 53.7856 53.9697 53.583 53.9636 47.2675 
47.5865 51.5239 50.5995 50.3099 50.3726 50.6231 51.7754 50.1499 50.5286 
50.3328 50.9199 65.3909 50.495 50.8229 51.2065 51.2216 52.3995 50.8757 
51.3146 52.0651 53.0317 51.281 51.3804 51.413 51.0011 50.9073 44.8724 
43.6952 41.9156 50.263 50.4682 42.5659 44.8644 45.5627 50.1547 49.493 
50.1551 52.2621 49.6598 51.0343 49.9456 59.1371 57.9657 46.6915 51.0285 
50.4447 50.2581 50.1144 51.0124 50.8483 50.6052 52.9891 51.1592 48.2984 
50.84 49.7811 53.2201 60.3394 69.515 55.2068 63.161 55.3192 57.7646 
61.8554 53.5546 51.5744 51.0675 50.0436 50.2336 52.1466 54.9664 51.601 
69.0016 58.2143 66.649 52.331 50.5174 50.9859 50.9884 61.5215 51.2746 
53.1927 49.6627 49.8627 60.3333 52.9792 53.3354 52.891 53.8597 55.8336 
63.7136 47.6259 55.8635 68.0261 62.4142 68.4288 53.3705 44.7692 47.917 
45.4656 50.9004 50.8169 50.1501 50.4124 50.7959 51.8266 50.9341 52.492 
51.7695 51.5473 53.2659 51.4065 50.8574 50.2089 51.8557 50.9622 50.4044 
50.7521 49.1823 51.9694 50.5964 48.1977 48.5672 50.4467 51.8162 52.5418 
50.2588 52.6682 45.4154 52.8888 48.6124 51.5234 53.0421 47.2289 52.8695 
50.6995 50.1982 51.269 51.245 50.5064 50.88 51.0568 53.43 50.3454 
52.425 65.2732 62.1502 61.1856 62.4413 51.0068 66.2558 64.8973 64.6915 
43.6927 45.6965 51.0684 53.5389 58.3824 50.5247 53.6061 62.9335 62.5128 
53.6397 51.2072 51.1566 50.9994 47.8102 51.0713 51.0542 51.4486 52.3336 
50.1994 50.7917 64.1382 56.4728 50.3837 50.1187 44.9888 47.0974 50.8083 
50.3746 52.3677 53.7429 53.3424 52.785 50.9102 51.0641 50.8102 51.4445 
52.9558 53.1884 47.8683 51.9302 52.3814 53.3543 65.6573 66.1489 52.3212 
51.2573 52.1161 51.1888 46.1617 52.1968 50.1006 50.2159 47.8302 51.8416 
50.9195 50.8215 50.1316 50.1932 51.8932 52.4172 50.7257 50.1274 50.1191 
50.9367 50.8328 51.0854 52.3554 50.828 50.9178 52.1187 49.2216 46.4056 
45.731 48.4423 48.0481 46.4513 63.194 50.0726 49.9612 51.4881 50.6332 
50.0652 71.4733 72.0311 52.5077 51.654 50.1761 50.7772 50.101 51.133 
52.1038 46.1935 51.6503 51.2197 53.1023 50.9212 47.9406 50.4589 49.8731 
50.9327 46.4133 51.2362 50.641 50.6534 60.4962 51.3645 51.5476 52.468 
51.0951 51.0477 62.6733 50.006 51.3897 51.0355 51.0202 53.992 53.8494 
53.5906 50.9944 50.9886 51.1598 52.6036 51.4788 50.815 51.5436 51.0845 
51.0526 61.5816 69.6915 55.4496 54.2775 50.1645 50.9507 50.7396 53.3628 
63.7655 50.8436 52.4334 51.0141 50.8294 50.4428 49.5494 50.7221 50.8064 
61.3181 50.908 51.1528 51.0974 50.0035 50.1601 52.4945 50.4785 50.1318 
50.6447 51.2875 50.0547 49.4732 52.7846 47.9967 53.4783 58.4508 50.294 
51.3052 67.1768 52.2172 52.6157 53.4975 52.6932 50.5503 50.8593 50.8272 
50.4783 50.3134 64.869 51.822 50.9841 43.3486 45.7362 51.9103 51.8545 
50.9336 52.632 50.1351 51.752 50.9723 50.5966 51.0234 50.6294 51.0996 
51.4848 52.4197 52.8934 50.0165 50.0019 46.5841 43.2986 49.1564 46.5995 
51.0762 51.0758 51.6482 50.9014 58.7682 54.6422 61.6267 66.9937 49.4075 
50.7943 52.5743 52.4092 61.8182 59.6758 52.0944 50.9565 50.3863 50.8008 
47.9977 49.8085 46.8369 47.641 43.2523 52.3789 49.3261 50.5558 50.1605 
50.4016 51.1917 50.4629 54.9122 49.3608 50.5344 51.7341 51.0103 46.7645 
45.7086 47.5551 43.0913 48.6337 52.334 51.1901 50.6062 52.4223 51.0422 
50.7064 50.6041 51.5314 51.8827 50.26 51.2976 66.3601 69.4517 69.9091 
64.3666 53.0093 50.2141 50.0977 51.4566 50.402 52.5778 50.1429 58.8417 
49.6537 55.2451 59.0538 51.9236 50.3077 51.5623 53.4989 53.4797 54.1841 
54.0017 53.432 52.2387 50.0543 51.3477 50.2004 50.8962 51.9283 51.7926 
52.073 50.6835 52.3928 52.4949 52.5595 45.5429 48.0515 51.6231 57.3335 
63.3484 50.9126 51.8174 68.5232 52.4747 70.2257 68.4621 67.7088 49.3401 
51.8195 51.1669 50.1505 66.4238 62.4242 48.7926 45.8327 47.7244 48.4488 
45.7536 54.0907 53.4592 54.0815 51.4157 53.0248 53.4648 53.7402 50.1484 
66.197 64.0826 51.3731 51.1705 50.2017 51.0349 51.1323 52.3246 51.3527 
53.8179 53.4047 51.5136 49.2233 50.0373 50.8188 49.6639 46.7943 50.7716 
50.7224 50.7364 50.9332 47.8429 45.7895 50.057 51.2859 51.047 48.9874 
56.9601 52.0942 51.4659 51.4174 57.3714 49.9912 60.3478 50.9776 51.0291 
52.862 50.8981 69.1483 60.1984 59.4653 49.8049 48.4782 54.1001 53.3998 
41.7649 42.5736 50.5606 50.3422 50.7344 53.0703 51.2126 51.0158 51.4982 
50.8556 61.9024 52.0428 50.2723 67.9789 52.1516 64.5008 51.3431 50.9853 
50.4172 50.2987 69.6618 50.7158 52.5228 60.0101 52.1346 52.4111 53.2581 
52.8472 52.4073 48.9778 52.7621 65.4476 52.7997 50.4485 51.8412 50.943 
46.9301 46.5146 48.3881 50.8476 52.7652 51.5441 51.5347 51.3725 59.9965 
63.7668 65.1718 51.3309 51.0771 50.9864 50.5629 52.1581 49.4379 51.6728 
47.4223 45.6362 46.4787 50.4945 51.5235 51.161 60.9271 51.1555 51.4857 
59.2034 55.8959 54.5121 47.9123 51.3818 59.4656 51.0231 50.9714 51.6996 
50.9617 50.8646 55.2777 52.5831 50.9163 52.0446 50.9661 51.8692 50.885 
50.9883 44.7079 49.6988 51.754 68.008 60.4827 57.7488 51.8929 48.9921 
50.536 48.0426 47.2975 49.068 47.8961 51.4424 51.0717 51.5178 51.0327 
49.1754 47.4747 50.745 50.2702 50.6931 50.2723 50.1675 53.3905 50.7938 
50.0593 52.4862 56.8394 51.3997 51.9406 51.4688 50.9902 52.1889 65.2393 
64.2281 48.0261 53.1979 56.3869 49.4468 59.0621 61.3714 56.5694 43.6882 
45.9353 56.2518 51.4568 56.5941 51.2582 50.7328 50.7164 50.9645 52.0248 
53.2404 50.8055 50.9014 50.2857 51.4756 50.4901 50.3983 50.6512 50.8419 
50.9801 52.6079 50.9966 50.8585 47.1949 48.4694 49.6808 48.289 52.6507 
50.7897 52.6277 50.0134 51.4313 50.4649 55.3712 50.8578 51.0455 42.7792 
43.2656 50.9386 52.0438 58.4192 51.7895 50.4801 51.1286 51.2038 50.2367 
52.0779 51.2558 50.4651 59.4492 65.5638 51.1224 53.9279 51.2344 55.8133 
52.7355 50.713 51.9747 50.2225 45.0441 46.6646 53.0975 45.3192 44.2158 
48.1471 53.3816 52.0871 52.3537 53.1235 64.4039 64.967 52.175 52.2025 
52.5033 50.7494 51.8817 50.842 50.6309 52.2591 52.1675 50.2907 67.6801 
68.6954 67.1649 67.0999 50.7107 51.702 47.7258 47.2506 46.3171 47.4722 
45.9152 44.5198 50.9481 50.9207 50.6284 50.4566 53.4904 50.1601 51.7642 
50.6984 68.7188 51.3469 51.096 52.4923 50.3839 50.7799 51.352 51.8389 
50.9997 51.0411 50.918 50.0623 54.5019 51.0249 52.2616 55.9592 53.1031 
53.7591 54.0648 51.48 52.368 51.6752 51.9875 69.9819 61.7338 70.1111 
61.98 51.9382 58.15 52.3808 51.5979 50.3357 51.7199 43.1196 43.8466 
46.0707 50.761 53.2325 53.3006 53.3843 53.752 66.3651 51.2653 52.1217 
52.5904 50.778 50.1277 50.5408 50.9625 50.8638 51.546 52.5643 48.546 
44.5747 49.4469 47.3889 59.3754 66.3384 50.9951 50.8377 51.3968 50.9779 
51.8972 49.8724 50.8186 44.6665 52.2418 50.9149 51.376 51.7215 50.3525 
50.1618 50.5478 50.4723 51.108 51.6849 50.8777 50.7359 50.9169 52.6825 
52.8351 60.815 62.3353 50.7478 50.991 52.3909 54.2828 59.053 64.8732 
51.1579 50.2231 51.3862 50.7412 53.8949 53.1298 54.039 53.5512 54.023 
46.736 53.5109 45.0973 46.8558 53.7464 53.6087 53.7305 53.6118 63.9232 
68.541 69.5622 49.3548 50.1656 50.1687 50.2168 50.9012 52.4524 51.6394 
52.0566 49.611 51.7581 50.0253 50.6512 50.8221 50.2959 50.4488 50.3897 
48.2062 66.8813 59.5101 50.5529 50.9688 51.3002 51.4164 52.305 52.2823 
51.0118 52.7218 50.9195 50.8127 51.1119 48.7389 46.3487 51.8952 50.6989 
50.9232 52.3662 51.479 44.8038 45.0155 47.6046 52.5008 50.6037 53.1403 
68.0116 68.2483 69.8357 50.4549 50.7566 49.9285 49.5006 51.9056 50.2073 
49.5432 52.3343 48.1147 48.9753 47.2659 44.306 51.4654 53.4524 53.2284 
50.8357 65.3926 51.0729 50.9355 50.9338 67.2306 55.2472 64.5271 53.4905 
55.6412 50.963 51.0012 51.0841 52.656 50.6331 52.1458 50.4221 50.1197 
50.5565 48.4929 51.8972 50.4593 50.0621 50.0147 50.167 66.6697 60.7135 
67.5372 55.8751 52.3453 56.8653 63.8991 61.8707 57.5999 55.9872 50.9738 
50.8332 51.0152 50.5652 50.4945 50.8008 50.6735 53.583 42.2756 49.5729 
49.0005 43.726 46.0571 46.1724 42.8439 50.2277 64.1959 57.94 52.2719 
52.052 53.3352 52.9476 53.6177 53.6839 50.347 51.2875 57.4034 53.2094 
53.8935 53.5897 53.965 52.7477 49.9989 51.2984 53.3687 50.7225 66.7341 
50.8597 66.224 53.5979 52.7534 52.1004 53.318 51.0004 63.4917 68.5903 
50.6981 50.4598 50.6553 50.0426 50.2693 50.1322 50.5191 50.7135 50.8759 
50.24 51.3936 51.6205 51.5175 50.3093 51.3969 50.3878 50.826 51.0887 
51.5214 63.6386 61.6529 60.886 60.7855 53.0841 51.48 50.4936 52.0225 
67.7832 68.0191 53.3637 58.2088 63.9556 54.0181 53.8823 53.936 53.8903 
50.3964 50.0373 52.0312 53.1834 53.3718 52.9315 50.674 51.1655 51.933 
52.1546 50.8639 52.398 52.0711 51.9134 50.1865 51.56 51.1363 51.6804 
53.5919 50.5126 50.7919 52.8565 51.092 48.7806 50.8614 51.6064 50.9203 
50.8518 54.4473 50.8901 51.5641 46.0873 51.7138 51.4035 50.7201 50.6438 
50.6401 53.7793 53.8129 52.3925 52.3471 51.1776 51.0713 43.0339 44.4468 
51.0127 50.8048 70.7635 53.8092 55.5384 52.5476 49.2292 53.4298 50.2791 
52.0232 46.2628 49.408 47.9575 50.5906 51.0292 53.3379 50.978 53.5684 
53.8517 66.847 59.5128 66.6755 63.2054 67.4882 62.4905 51.5544 58.1103 
50.192 50.3661 51.0101 51.3945 50.2556 52.6068 52.3867 51.4692 51.9703 
53.2159 52.7771 51.3654 52.9635 46.8456 48.6563 51.3196 49.1471 42.6014 
43.8205 42.8782 45.4802 65.3013 57.2153 60.1879 69.6934 65.9654 63.8994 
50.9744 50.7547 51.1619 50.8328 50.2822 50.0429 50.8461 50.8147 42.7174 
61.4674 57.8066 51.4324 50.3414 50.4413 47.0977 50.1755 51.5031 57.9519 
50.7822 49.4489 51.2608 52.476 51.0003 51.6146 57.9415 56.3868 63.1319 
53.9144 50.3884 50.278 50.5109 50.7134 50.2087 50.0959 50.4797 62.0511 
50.7868 52.7677 65.9906 54.2036 54.2019 61.7006 58.5411 62.6673 61.5632 
50.8782 50.6795 50.9959 50.9758 62.911 51.059 51.4675 46.7622 48.4849 
59.3703 65.043 66.2136 47.2284 45.6222 44.1177 50.7705 50.4345 53.5815 
51.5131 64.3124 63.3074 52.6909 51.0771 50.7099 50.9458 67.3104 53.5429 
49.561 54.5538 53.8536 53.1438 50.8869 50.713 50.3463 52.7579 53.2704 
53.2449 52.8813 50.9748 50.902 50.8682 51.0473 51.6452 51.6851 50.7627 
49.0005 50.3022 52.382 51.4101 52.7759 49.083 52.3095 49.9219 53.0865 
49.8707 49.9153 51.0416 50.2687 54.4654 50.891 50.9835 53.2584 51.3827 
51.7743 50.962 51.2904 50.9444 51.8961 52.1532 53.0915 52.8075 53.0095 
58.162 51.4346 50.3456 51.4311 52.2611 51.9849 50.9275 73.6787 50.6146 
71.1307 57.4923 59.1314 64.8071 49.2196 49.1512 49.1132 47.9228 51.6991 
63.0973 48.4088 50.5215 65.6122 50.4966 50.6729 53.4729 66.6267 53.9207 
71.1307 43.2911 43.7488 46.4369 50.1206 45.8883 54.1264 50.8126 50.555 
51.0858 50.7784 50.6944 52.6298 53.5571 53.0068 53.1761 54.1869 52.6725 
53.717 50.2664 51.0831 61.2356 47.6469 49.9763 48.1306 52.4851 52.3968 
52.1055 50.791 51.9591 50.9302 51.2575 50.1712 50.4808 50.1586 50.887 
50.55 50.3319 51.743 50.8318 50.9696 50.724 52.0006 52.2608 50.0891 
50.8221 54.5442 54.7226 50.7207 50.0958 50.3265 55.5538 50.1406 53.7126 
65.4482 51.703 58.6374 65.4017 67.548 60.0411 62.0394 50.0969 51.02 
51.0342 50.8613 50.7243 51.0498 52.0409 50.5495 52.1923 52.844 50.4373 
50.932 50.2052 56.5573 50.4482 50.2245 48.1492 50.9815 51.3158 49.3238 
51.4549 50.8221 48.2926 50.8125 51.4651 50.8319 51.2769 60.1819 49.9426 
50.5264 50.7129 53.0991 53.0685 53.4854 53.1991 52.24 52.3583 50.9162 
48.8373 48.5263 51.9516 51.5953 51.6719 53.8585 53.7512 52.9063 57.5667 
50.6574 52.3543 54.5566 69.6834 64.412 67.1786 60.941 50.1896 50.1134 
50.006 50.6853 50.6932 50.8881 50.718 53.1332 51.8134 50.9964 50.6724 
50.8267 50.9246 50.8429 53.5593 52.7902 53.763 53.2095 46.8163 52.8924 
52.5121 52.9696 67.9457 51.6518 60.7575 66.7888 68.4802 68.4647 64.4426 
46.0291 51.5103 47.6875 47.4713 65.0493 52.9952 50.6632 49.2158 44.9651 
50.8602 51.6104 51.123 50.9727 51.3199 50.0946 52.2562 50.8186 52.1705 
53.0175 50.9022 52.8046 50.88 58.5432 59.8625 54.0906 68.8349 55.8294 
50.8948 50.5402 50.7664 54.1223 54.1211 54.1826 54.2493 54.1599 50.8811 
50.7965 50.9465 50.9319 50.6957 53.6355 53.5704 53.2845 53.768 51.2547 
53.8125 44.4717 43.3431 43.9871 46.2789 53.0497 53.3878 51.6152 53.0344 
53.2211 51.7992 50.7362 51.933 51.2601 50.4487 51.7167 48.5596 46.0762 
70.1664 64.3106 63.0111 72.2334 57.4258 64.9733 64.5099 61.8709 47.5479 
51.0914 54.8129 59.3323 51.5309 50.3202 51.9011 49.5089 50.8565 50.9781 
50.7905 52.3945 53.6092 61.4813 67.7454 59.0411 53.7081 53.2054 53.5148 
50.4176 48.3168 49.4217 50.5499 42.9947 43.4209 52.2423 50.7454 50.8595 
52.6241 51.58 52.7146 60.33 50.416 48.6731 53.0256 53.2884 53.8801 
68.6611 53.9192 52.531 51.4657 44.3818 51.0926 49.7128 53.968 53.9432 
55.6926 53.9011 51.5138 50.5346 66.3301 57.1441 51.0882 45.5821 47.143 
48.4232 50.333 50.8508 50.3372 50.1636 50.2695 50.8491 50.2591 50.6224 
49.0443 53.4911 52.8262 51.4944 53.2868 53.3895 50.8012 50.1555 51.1895 
44.0358 66.3436 63.6392 58.9639 47.8451 50.4826 50.5535 51.2065 50.7922 
51.2108 56.2122 51.1075 50.6471 50.5215 50.7305 53.8208 51.0706 51.8804 
65.2269 52.2095 51.0116 50.9356 51.2296 51.0149 50.665 54.0967 54.252 
54.1692 54.0294 50.9284 44.8204 45.3314 46.6464 43.611 50.6344 50.573 
50.69 50.8113 51.1618 50.7514 50.7408 51.4893 51.7409 52.1449 50.4896 
51.0119 50.9149 54.5864 55.8058 62.5157 62.7456 51.4538 44.3122 42.8378 
45.2191 46.826 45.4122 42.5241 50.8805 51.8115 50.5771 51.193 50.8297 
51.0759 50.8606 51.031 53.3101 52.8758 52.1955 53.1321 53.1848 65.2116 
57.247 59.0348 53.3402 53.8302 53.8857 53.9299 52.1561 49.4572 51.1201 
51.9829 51.4695 50.1402 50.6395 50.6072 50.7605 42.2275 43.1023 43.808 
42.9784 60.8137 71.8575 70.5869 52.821 52.1635 48.435 52.9713 54.0085 
51.928 47.8432 45.3124 48.9122 51.5795 53.3409 53.6958 52.7265 52.117 
66.7668 67.1262 68.3735 69.6093 57.0716 66.7161 51.0037 51.1821 51.3589 
53.3057 53.4324 53.954 52.2214 54.1116 66.4584 58.1544 71.3082 51.1041 
62.6435 67.7768 66.4037 67.8472 55.7481 68.513 50.9306 51.9303 52.6386 
51.5861 51.4284 52.047 50.2414 43.4288 42.7956 45.1482 52.3065 52.7688 
50.9448 50.7941 49.283 57.7624 54.1589 54.1477 54.0866 54.058 54.2432 
50.2944 50.2971 50.6593 51.5093 50.9558 53.6561 51.895 54.5045 51.1872 
50.381 51.8579 51.3674 51.8696 51.017 51.4703 50.6958 70.376 68.7934 
52.0653 50.3346 51.3323 62.3593 65.3432 69.8202 50.2233 51.0108 52.8048 
50.3804 50.4354 51.1509 51.1569 50.7489 50.3557 44.4151 45.6146 64.8392 
55.7008 50.3129 53.6133 52.7847 50.6814 50.036 51.0335 50.0799 50.1594 
50.0609 51.6484 60.7198 64.1441 60.4637 58.6678 51.3823 46.4582 49.6594 
59.7257 64.9493 64.0916 57.4096 49.9924 50.0973 52.3257 65.4877 51.7525 
48.8183 50.1533 50.0559 51.0135 49.9056 50.9644 50.9134 51.5885 50.8046 
48.886 51.7401 68.2477 67.9695 65.4212 51.8184 51.472 50.9025 62.5788 
50.5684 70.6121 46.4499 48.535 47.2512 47.8213 44.8481 46.1956 48.2235 
58.7624 50.028 65.7705 64.5099 69.493 61.3053 59.3081 51.8518 51.2612 
50.9369 50.29 50.9427 50.9653 52.6949 53.6172 53.1689 53.2934 53.0939 
53.6991 53.9041 54.0053 53.3621 52.5863 53.2809 53.4793 50.1184 53.4828 
57.325 50.1431 50.4275 50.8611 51.5023 50.8471 51.5638 51.4452 51.3133 
51.2415 51.3824 52.9874 52.9576 53.2072 53.587 68.933 67.9419 68.0678 
65.2014 65.2014 53.5458 50.7301 51.1035 51.1637 57.2879 51.3107 51.0805 
50.509 50.9695 51.2377 50.9779 51.5263 50.2069 54.7513 66.9315 56.9133 
50.2242 66.3416 63.8619 51.0137 51.1744 51.0044 51.0527 51.4016 52.7611 
51.4191 54.8923 55.4637 51.0199 52.8001 52.8919 53.2808 50.1715 50.3543 
50.1993 52.2148 49.9306 52.8937 52.4013 53.9332 53.823 70.3076 60.8811 
66.5949 60.4767 50.7765 51.6026 51.5543 52.1842 50.7351 52.5959 52.3449 
52.1013 50.1702 64.0434 42.8441 42.66 45.564 42.2416 52.9355 62.3406 
69.629 42.7473 44.3351 50.9312 50.2235 51.267 50.0864 50.2489 51.3504 
51.2535 50.7144 51.7922 50.9572 50.7918 56.0373 66.8288 54.275 56.6483 
63.7722 43.2762 45.7809 50.5007 52.7837 46.7801 51.9638 50.1577 50.2076 
50.4842 50.4157 51.6997 50.6725 50.8678 53.7275 50.1326 50.9826 50.4307 
50.5911 51.007 50.7658 50.4868 50.7926 51.0495 53.6459 52.0444 50.8167 
50.8532 55.2374 62.1838 53.7532 66.5188 50.3527 52.2119 50.8442 52.983 
51.3825 53.7951 53.2678 50.4682 50.2287 51.1299 50.5812 50.2326 52.8972 
53.954 52.1789 53.3897 50.8811 53.1749 50.8782 51.6753 60.6993 51.847 
51.3722 45.7432 50.4742 50.8692 51.8174 55.0547 50.693 50.4085 53.0169 
53.9088 53.7837 53.7877 53.7606 53.3008 55.6448 51.2274 60.3561 55.6656 
44.8483 45.9838 50.8444 47.1338 47.6327 48.616 44.0618 45.7833 50.648 
50.6601 51.4499 50.6458 50.4349 50.6447 51.8809 50.7347 50.5996 48.3705 
47.7127 61.7502 68.5075 61.0579 53.7646 64.2562 55.6377 51.5 50.0602 
50.0522 51.8076 52.2467 51.8259 51.3734 51.909 69.2152 66.1305 51.004 
50.4937 51.2297 50.5213 52.6925 52.9599 50.6318 52.5877 52.4812 50.3565 
51.5135 53.9969 53.8947 53.8753 50.168 51.5168 50.8258 52.196 50.7904 
50.5895 50.9305 53.8608 50.1973 57.2918 53.8233 50.2053 50.8066 52.5776 
50.278 52.3201 50.172 50.0095 50.8457 53.3554 52.8423 50.6642 50.6095 
50.8638 50.7709 50.3026 50.309 47.0068 50.192 50.8568 50.7412 50.0671 
50.0815 51.0293 50.509 50.7107 73.4995 54.6691 65.7026 60.7528 43.5148 
44.9245 44.1806 64.0253 53.6926 51.1444 50.0334 51.2495 50.4687 51.9042 
53.6596 53.8374 50.9172 50.9164 50.9637 52.9956 52.5238 50.1417 55.0552 
52.2322 63.0441 59.2701 66.7685 66.3693 66.1113 50.1988 50.9309 50.4806 
50.3434 50.2239 52.6362 51.1044 51.4958 60.5443 56.9726 51.047 52.1934 
51.7309 51.2681 52.1238 49.7148 50.7108 45.8667 50.8619 50.156 50.3746 
52.1426 53.952 51.7644 53.086 53.7352 53.6454 52.9912 52.264 51.8694 
51.0345 51.2409 50.4836 51.3903 52.4903 49.9758 45.5115 51.8742 51.6751 
51.0255 50.1833 50.4428 50.1879 50.2764 51.4724 52.5337 50.7099 51.9251 
51.4475 53.7447 65.7451 57.3958 52.8382 52.1631 51.0464 52.4443 51.6636 
50.7419 52.8228 51.7311 49.7307 53.8252 65.831 50.0836 50.2138 51.0657 
50.0936 50.1816 51.3303 53.2418 50.9869 53.0275 69.8537 65.9829 48.0216 
50.7472 50.4288 50.7169 50.6873 50.4841 61.425 71.0101 73.4591 53.1835 
52.4335 56.8309 49.6026 52.3165 50.1616 42.5825 51.2923 50.1036 52.7734 
52.2632 52.7588 50.8654 51.1076 50.9491 51.0538 59.4984 68.5963 68.859 
66.1839 66.5337 70.1216 50.8945 52.7785 51.3477 53.1347 50.8331 52.2971 
56.8537 51.0093 59.0011 70.0689 58.2376 53.4488 46.9771 48.3639 52.7074 
50.6979 54.0148 54.0602 49.8982 42.1948 42.5877 44.1108 71.5514 71.0829 
70.8447 64.4948 64.9186 62.3473 50.4466 51.113 50.0298 50.1457 63.9209 
64.745 58.7825 51.437 52.2121 55.087 56.5587 53.8172 53.287 52.903 
53.3811 50.3367 50.7599 51.6633 52.1148 51.8064 52.1921 51.1181 51.5621 
50.8628 50.8605 66.2896 67.6337 63.4819 50.3796 51.4398 50.9816 50.9045 
54.1392 54.0831 54.0609 56.8839 69.425 51.3581 55.7558 51.4558 50.6255 
50.3311 53.2968 52.0489 51.3874 50.1634 50.4938 51.3472 52.9574 51.903 
53.8011 51.2075 55.9977 49.9361 49.6354 50.2373 52.3597 50.2153 49.9931 
52.0008 52.5048 52.424 52.3203 52.8345 51.653 53.0271 50.9693 50.8458 
50.6359 50.5615 50.8384 51.0972 50.8713 50.8735 49.3727 49.8078 46.099 
66.6862 47.1001 48.883 50.3406 50.4467 51.6609 50.6787 50.0449 51.9913 
54.1636 50.8402 50.9674 53.4862 51.0105 50.9996 52.9013 55.0314 50.5781 
50.1944 50.752 50.8512 50.7888 50.8683 50.1531 45.0107 43.2523 50.8983 
50.7938 51.1705 50.023 51.1778 45.1135 48.1204 52.1986 50.8274 50.9514 
50.2313 44.2246 45.3676 44.3668 48.979 50.1651 50.3763 51.1533 53.5405 
51.088 51.1611 52.2943 50.1935 51.0251 48.1428 49.8462 66.0351 59.9286 
62.9855 61.5013 54.232 64.7184 66.7142 66.059 55.3632 50.9974 51.5555 
54.5606 49.889 54.3215 51.51 50.417 50.5047 52.4469 51.4299 52.1368 
51.5406 50.2573 50.1609 51.1131 52.8613 52.0807 52.0434 52.3213 50.8546 
51.7052 51.8125 57.8015 55.8183 69.1406 50.1134 50.7335 50.2061 50.9418 
51.8217 51.3674 62.3044 52.1182 47.3069 51.0839 52.4494 50.3375 53.9454 
54.0643 53.9575 53.8275 51.396 51.6201 51.099 53.542 65.1528 69.089 
63.1483 69.8112 50.7677 51.716 50.9595 49.9619 49.7428 50.5517 50.2583 
50.1881 53.8421 53.1487 53.9011 53.4521 52.0273 52.4245 51.1095 57.5405 
52.582 54.6833 50.9201 51.2199 60.4935 52.0331 53.0522 49.6035 54.2556 
47.1913 48.1286 46.6185 48.497 47.0907 44.1401 47.7842 42.9831 50.7826 
50.0792 52.225 52.4056 52.4274 51.763 52.5078 52.3522 52.9294 53.0133 
52.9198 55.7946 59.9748 65.8507 69.8231 51.3808 47.5642 48.4275 48.7214 
50.3963 49.5503 53.6187 53.511 53.6075 53.6619 52.7283 53.3126 53.9959 
50.8883 50.7986 65.4027 55.1143 62.6702 51.0905 51.0085 51.9215 51.868 
50.1771 51.0276 50.9765 52.4876 52.9863 51.6079 50.4954 52.7564 50.874 
51.0452 53.3376 69.331 47.4543 50.5722 52.4752 53.5794 53.0843 50.9883 
51.3772 50.1509 50.1703 55.9899 62.446 51.1925 56.5978 62.0979 54.078 
51.3173 53.0215 53.9067 57.7692 49.1477 51.2508 48.9392 51.6977 51.3467 
52.9491 49.9884 50.4089 52.4657 49.9119 62.7186 52.8333 56.351 64.493 
58.8141 51.8164 65.0255 50.3089 50.5378 51.9972 51.6726 47.1504 46.2919 
46.5685 52.0622 57.4762 51.696 53.1422 53.6486 53.7002 53.8078 53.8089 
53.7678 53.9099 54.029 50.2446 49.8748 53.7802 50.7836 50.8041 50.8103 
50.7026 51.0827 50.7667 68.8326 60.1878 65.365 54.137 58.4608 57.6254 
59.907 63.8415 56.0908 57.7744 52.9934 52.3675 51.34 50.5338 51.0719 
50.8561 50.231 50.0129 50.9636 51.0332 50.798 50.966 51.1366 52.0682 
50.8857 68.1908 61.0287 65.5827 69.5483 52.2217 52.9622 50.6798 53.0126 
49.6036 53.346 53.2331 50.0132 52.5567 51.7777 52.0387 50.7631 50.7337 
53.3819 51.1649 50.445 62.9351 50.182 50.9822 51.32 52.9264 45.774 
49.1039 49.9948 46.8327 48.3167 51.0723 50.7771 50.5752 50.9274 44.5887 
46.4652 45.318 53.6951 51.9707 53.642 50.3959 50.9434 50.9646 50.6548 
50.8247 52.4023 50.8129 50.2614 53.1697 50.8952 50.1055 51.1006 51.5337 
50.0032 50.2493 45.7142 51.0934 50.5555 50.9207 50.6656 52.0486 51.626 
52.0023 59.6453 65.2994 66.3298 51.4074 50.146 53.0851 51.5926 50.2446 
51.2205 50.7169 51.2532 53.0497 51.245 61.1082 65.6657 69.6569 44.1635 
48.1287 50.9859 52.0813 46.6309 50.3917 50.4599 51.7196 57.4536 56.8277 
50.2636 50.6859 50.5967 50.461 50.4875 53.0439 52.0535 50.8999 50.7562 
51.3131 48.4019 50.0762 66.0507 64.3411 61.514 51.1176 50.8445 51.4546 
53.4923 50.2482 51.8473 50.0991 49.6771 48.7069 53.3449 52.3704 52.8686 
52.2018 52.7265 52.8784 52.2735 51.4599 63.6916 50.0652 50.1392 50.938 
50.5274 50.4594 50.3131 51.2313 50.9205 52.6578 52.5407 45.8487 51.1269 
68.3015 63.4587 67.9834 50.8568 50.8761 49.0632 51.0181 52.0566 50.7483 
50.6592 52.0745 57.0684 50.4323 57.1159 51.8963 51.125 52.887 51.127 
52.7341 45.1776 44.9109 44.5195 45.9468 47.1771 46.0794 47.4163 50.5299 
51.0851 50.8362 50.2302 51.0673 50.502 51.4081 50.2019 49.9974 50.3021 
50.4141 50.7226 52.5804 53.9608 51.4603 45.5867 46.1855 46.3609 47.3251 
47.3482 43.3033 50.4589 50.8233 50.8407 51.228 49.5934 50.2456 50.6117 
50.2198 49.4573 43.4195 48.409 44.6447 45.9206 48.9328 50.8241 50.2634 
50.4738 50.2786 55.8355 58.0019 56.4185 51.7616 50.2856 51.8414 51.8087 
50.1484 50.3495 49.6275 51.461 51.8805 53.1754 67.3604 50.4189 50.9166 
52.5054 50.9627 51.6662 50.8412 51.6786 53.8825 53.8475 52.6643 53.4858 
59.6949 53.7299 53.5555 61.2913 66.4691 50.275 50.5485 51.8729 50.7929 
52.5869 47.2472 42.7054 44.0459 43.8651 53.251 52.8248 53.0912 52.6371 
51.946 52.7405 51.0136 50.8858 43.5052 72.0068 50.4441 63.1131 53.235 
53.3028 53.7294 51.761 50.003 50.91 50.9713 50.9847 51.0866 51.0211 
51.0721 42.9823 43.8286 43.8479 52.723 52.953 53.1173 53.1967 61.1198 
53.1783 52.2309 53.2151 54.098 53.0332 48.2496 51.4153 49.9944 49.7832 
58.4575 52.7412 50.1548 50.3224 50.289 51.3578 52.0521 52.9023 51.7721 
68.5401 69.9773 65.9869 62.8488 63.2957 51.2252 51.1869 51.0279 52.4354 
53.652 53.3097 50.9635 53.0854 43.5596 43.1382 44.0092 43.8344 43.2023 
43.7904 44.992 47.2982 47.4149 44.2978 46.5111 51.7832 50.9431 50.8192 
51.4018 50.7784 51.5874 52.8527 52.8619 53.7526 51.1141 52.4666 51.3742 
51.2524 49.538 51.8004 52.1303 52.6292 51.3382 51.8933 52.1397 51.2071 
50.1741 51.4277 55.8475 44.1831 49.0848 50.2601 49.1028 48.6532 47.7646 
50.4519 46.8852 50.1082 46.4845 53.2626 53.3764 51.692 53.9396 53.0894 
54.2142 54.163 50.3446 49.986 50.3739 50.0838 51.9193 50.6534 50.815 
50.3047 47.7426 50.6257 49.6075 51.1751 46.4704 48.2914 68.7825 54.7157 
59.2314 51.945 58.6913 50.2665 51.4398 50.897 50.8302 52.19 53.1747 
56.2683 52.7315 50.8307 51.5141 51.1129 51.0482 51.1329 52.5609 50.8559 
50.964 53.2279 53.5239 53.272 52.9774 51.4989 58.8832 53.4411 65.0092 
51.3425 62.6534 51.4392 50.47 51.8315 56.2288 43.7701 43.1826 43.5231 
44.1949 43.4254 42.1063 47.1602 42.1306 43.8677 42.8978 51.0015 50.8292 
49.5765 49.3262 45.7833 49.1289 50.671 47.4714 53.3802 53.6924 53.3515 
53.5033 53.3441 52.2335 52.1998 51.9734 51.6584 51.0395 52.5964 50.4122 
52.3209 51.6623 50.7891 47.5849 50.3681 53.303 52.2949 53.1568 52.4737 
59.7499 50.5495 51.0069 50.0924 50.3019 68.1908 68.1581 69.6765 68.7761 
50.7554 50.5021 61.1837 52.5253 50.2613 55.4579 52.8733 53.0224 52.1812 
51.8694 52.5485 59.6 44.7644 46.1118 46.5995 46.345 47.6406 46.8079 
47.8599 48.1996 51.0589 51.3834 51.7948 50.6411 51.4096 62.625 69.4635 
69.2126 44.0001 45.6812 42.8665 42.5999 50.6924 50.4916 50.8251 50.5731 
51.906 43.6968 45.7702 50.5743 44.6697 51.6035 49.5566 50.1096 63.5715 
67.0943 68.323 68.1606 69.5301 50.1369 52.5153 52.3508 50.0328 51.1826 
50.3357 50.6604 50.1661 50.9324 50.6583 51.4674 51.0431 51.637 52.7261 
51.744 59.4997 62.1574 52.3338 51.6617 53.5247 53.6035 53.2801 53.2919 
53.7687 53.2898 46.4566 47.984 47.2208 46.7087 52.6778 53.5546 51.1119 
50.2724 66.3822 70.0879 50.7097 52.6819 50.6797 52.7707 44.502 49.1861 
45.4981 47.4699 47.3991 50.164 51.1677 51.7112 51.4476 49.1596 51.639 
50.3789 50.3561 50.499 50.9617 66.7689 57.3099 62.2657 58.5247 51.5738 
51.1662 52.5699 53.3007 53.2457 53.118 52.4212 50.0846 53.0525 52.4192 
47.5079 60.7956 50.1093 52.4352 52.6852 52.9771 62.0004 50.544 49.7279 
50.1529 50.2879 50.3128 50.2423 51.2392 51.1216 55.5403 53.1392 50.9307 
57.6096 51.2555 51.0508 50.946 51.0053 51.3296 50.2111 49.9866 50.6777 
50.3165 50.412 50.391 50.7429 52.4442 51.7571 58.3942 54.2374 50.5053 
49.1105 51.9018 51.2678 50.5255 50.4737 50.6369 50.7196 58.9162 50.2235 
50.247 53.1667 46.668 46.0997 49.3889 51.4005 51.6174 51.8195 50.1961 
49.7515 50.6725 47.0369 66.8774 68.5635 67.6321 57.29 50.2596 50.4227 
50.3033 50.5972 50.2248 67.7622 63.6182 55.84 62.5143 56.4237 64.2697 
60.0447 43.4693 47.5426 69.2217 65.0926 71.4524 50.1346 50.0235 50.0984 
61.0393 57.2123 55.3947 58.1106 63.7978 50.312 53.3568 62.2433 58.0943 
69.672 53.5827 55.8615 68.2223 59.0861 59.7066 53.7995 61.2083 55.1235 
50.8466 48.7903 50.3568 51.1853 50.5799 50.6694 50.3661 50.9185 49.9492 
45.9433 43.2835 50.7072 51.6778 50.585 45.1864 60.5514 57.3866 52.3264 
57.1638 53.2546 56.0718 52.2563 51.5553 50.8587 50.8532 50.7451 51.1997 
52.4605 50.8279 51.4069 50.4389 46.386 48.1896 44.4629 49.5303 47.0693 
48.9855 51.4291 57.4452 50.9293 51.4864 64.9936 50.8406 53.5364 50.6076 
44.7856 48.1518 47.8734 53.7574 53.7593 53.666 54.0653 53.8845 53.8137 
54.0611 50.2993 45.0802 48.4993 46.4788 44.0152 51.3675 52.7899 53.4469 
49.7037 50.6119 50.9042 50.9161 50.9483 53.6986 53.6351 53.717 53.6869 
50.7766 51.3698 53.4297 52.9282 52.9423 53.0621 53.9477 53.9759 51.1949 
50.6945 51.7082 50.7706 50.7477 50.9549 50.8898 50.8867 57.3544 63.0162 
65.3887 67.2659 51.1993 46.9916 44.9231 50.7948 50.5532 52.8978 52.6269 
43.2168 43.607 55.5101 54.929 50.1309 50.1605 50.295 68.0769 67.4158 
63.9417 56.3009 54.6263 64.4301 54.0484 64.9609 46.0539 48.0518 44.9458 
43.5343 47.5785 46.2621 42.8424 44.5732 44.1702 44.9242 50.2792 43.3094 
57.0489 69.9052 62.9973 51.1254 50.6314 51.0707 53.8109 50.2095 50.5095 
51.0631 50.4479 50.8392 53.8398 52.5759 64.3798 58.808 50.5054 50.0599 
50.1213 50.2944 71.1539 63.2935 66.0958 52.5713 63.7452 52.1205 50.3144 
50.5604 50.2074 47.3586 45.1095 47.9166 44.8865 46.5653 45.3713 53.9287 
53.9637 53.912 53.7983 53.0572 50.5322 50.1473 56.3719 57.259 52.9819 
65.0098 46.7957 47.8044 51.5103 52.6666 50.2132 53.3706 53.0154 51.8329 
51.8539 52.2592 51.9287 52.6822 53.038 51.8059 68.7763 50.8261 50.6999 
52.3715 51.8936 50.6665 42.9632 42.569 43.8452 44.2722 50.5099 50.5706 
52.0215 50.6543 49.1205 51.5541 51.9972 51.8955 52.0381 49.2694 50.2239 
50.4135 49.7021 51.4465 50.7854 50.3405 50.6585 51.7039 51.0257 51.2255 
51.0378 50.2953 50.7477 61.0994 61.3851 58.6781 51.0279 50.2518 57.487 
52.9561 50.1587 51.4323 57.4905 50.3147 50.4517 51.6948 50.0105 50.0301 
50.7479 51.7395 51.8803 50.1731 50.1018 50.4173 50.2887 52.802 53.3916 
52.9303 52.8468 47.6178 50.2206 57.4957 51.2027 51.2408 51.0465 46.5529 
47.3084 46.0025 43.2224 48.3158 44.0759 70.2675 65.199 52.2996 59.6251 
51.4055 58.7004 51.1674 59.4885 59.7808 54.8585 53.4138 58.5472 51.4715 
50.8513 50.2552 50.8431 51.0492 50.3747 50.4026 51.1208 54.2014 50.8547 
50.869 52.4215 50.6668 50.5981 52.5071 50.0848 51.2485 51.5003 50.0668 
50.2381 50.1015 50.111 46.3185 45.8445 45.3233 49.9097 50.8504 50.688 
51.0317 50.8064 50.8589 50.9182 44.468 43.9074 43.9934 51.4941 52.6076 
50.8004 45.128 46.1822 63.0084 51.074 52.8343 69.7855 70.0048 55.2693 
52.5033 53.1321 53.1886 52.7796 52.3577 52.0181 52.4486 52.2634 52.898 
52.2106 52.0568 50.7487 50.9158 51.0441 51.1921 50.8438 50.9418 55.5653 
51.444 65.3733 53.8321 53.9531 53.9641 52.5911 50.3832 51.1825 51.9346 
60.0057 61.2874 69.2073 60.9886 50.7398 51.8665 50.668 51.9428 50.7957 
50.3869 50.5756 50.0508 50.1139 50.155 50.1863 50.1534 52.1693 48.6615 
49.1183 49.4258 48.8711 51.215 52.1654 49.6506 51.4128 52.3544 52.5411 
53.6843 52.9943 53.3366 50.0141 53.6481 54.7637 51.4136 51.6403 49.438 
54.1514 54.1481 51.4457 51.7859 51.9322 53.3059 63.5086 66.634 46.1262 
43.2644 46.8304 49.6639 49.5387 51.038 51.0045 51.8844 50.9266 47.5338 
52.8429 52.0107 51.8829 50.7569 50.377 50.3451 50.503 50.8397 50.8389 
54.0332 50.5999 50.955 56.3943 50.6457 50.8244 51.8717 56.4761 50.0511 
50.5096 49.2729 51.2978 53.6393 53.7028 53.8471 53.7123 44.5705 42.4607 
43.6977 44.833 46.1924 42.9439 51.9004 51.2951 50.2036 49.9898 50.1923 
50.2309 50.4245 51.5296 51.3772 53.5787 53.6792 42.1356 42.2294 42.314 
43.9446 44.2615 43.3307 56.984 45.0999 43.8802 43.1861 44.9586 43.4078 
47.2696 63.4897 52.0132 56.4041 51.1187 50.9143 50.3197 50.8253 48.7386 
51.8917 52.9618 53.2825 51.2494 50.8055 50.7687 51.098 50.7196 50.5152 
48.484 43.2435 44.4709 51.264 50.7727 55.0493 60.7535 57.3863 53.7895 
51.0753 59.5177 54.8881 51.1735 50.7598 51.8522 52.0875 45.2096 49.5942 
50.1036 47.0684 48.5655 49.0588 50.7263 51.9637 49.7359 49.059 49.5697 
62.281 52.658 65.1941 55.29 69.8428 67.4858 50.8532 50.9196 50.8992 
50.3068 52.3678 52.0987 51.9389 53.5425 50.9738 50.622 50.9005 50.7887 
50.8673 50.8571 50.4085 50.7679 50.8769 60.3668 65.5766 68.9908 60.042 
54.0049 52.6774 51.9672 52.1828 55.0087 55.2965 50.6348 55.3846 49.0292 
63.2312 50.5495 48.4316 51.026 51.4366 57.3066 51.858 51.9525 49.9963 
51.7518 51.5202 51.9 52.4166 70.1087 67.9586 66.637 53.0847 59.9526 
50.9692 50.9476 51.3583 44.684 50.1055 47.3614 46.6111 49.3356 48.8352 
50.7798 50.8609 51.0186 50.926 50.8708 47.8098 46.8461 47.8372 48.5582 
50.3743 52.3566 52.0692 52.4167 52.3248 52.6346 53.5724 53.1526 52.718 
53.1339 53.453 53.9213 52.7971 51.1561 49.8297 51.0063 51.5277 62.8083 
50.4399 51.933 52.5306 50.8117 54.0905 54.5498 67.9324 69.4049 50.7949 
51.1521 51.4308 51.1047 50.6658 52.1347 51.4629 50.7179 51.0218 50.3729 
50.9177 51.4506 53.4713 54.6857 57.4828 59.6392 54.3336 66.0172 65.8045 
62.2533 66.2987 69.2358 50.6561 53.538 50.297 50.4509 51.986 51.3884 
67.7329 56.0571 50.8149 50.7446 50.8502 51.3876 43.2379 44.8978 45.8414 
46.3964 47.0635 43.9932 53.2874 49.9476 52.7559 54.0988 53.9878 55.7099 
50.8038 50.6835 64.1704 55.0013 56.4692 60.8898 61.8883 56.1537 50.8803 
50.4569 45.6843 50.6826 59.278 55.9389 59.7161 46.8001 45.8982 46.5616 
46.7667 52.021 52.6017 52.2803 52.6516 52.6213 52.5245 49.312 51.3999 
48.9034 50.1456 52.0122 48.812 49.3762 47.2486 47.3954 49.3648 50.4106 
51.5831 50.7295 50.7806 50.8298 50.5709 52.6448 52.1157 51.0127 50.9285 
62.4999 66.1724 54.5845 66.9855 56.1442 63.3166 59.0141 44.41 61.5073 
63.7026 63.2206 62.0975 50.7756 52.5263 52.6566 52.5498 50.4607 50.2401 
51.0347 49.9555 50.1601 53.3437 50.9764 50.8206 61.767 61.6697 62.728 
65.5235 72.1964 66.5801 71.4073 53.0986 61.1065 49.8538 51.0048 49.5828 
50.3755 51.6504 50.2006 50.167 50.6348 50.5007 50.0983 52.4206 51.7737 
50.3905 51.0813 61.2646 55.8973 50.9601 65.6554 59.513 44.439 46.2731 
43.9031 43.0503 42.7677 47.2788 44.4317 51.5367 49.8327 51.7647 47.0432 
50.8713 50.0166 49.9407 49.9769 50.1337 46.3867 46.833 44.6153 64.4621 
58.8325 70.9247 57.3738 45.7602 45.765 44.9773 43.7172 50.5331 50.064 
49.9356 49.9299 50.3697 51.592 50.3667 50.3557 44.4618 52.8477 46.9115 
44.9091 46.3919 53.5189 50.9178 55.4839 50.9931 54.6114 49.4798 52.2679 
43.9369 66.7461 43.8521 50.5408 53.2435 53.3885 51.8443 52.6898 53.3398 
53.0863 52.5511 50.6131 51.0499 52.0321 50.6647 50.3052 50.5814 53.2607 
52.2438 53.5582 52.9874 53.0998 51.5025 50.2703 50.45 50.9635 50.697 
51.1633 46.7531 45.6597 68.0927 68.9036 65.7219 53.7039 50.8096 73.8122 
70.9475 50.5328 50.2229 50.522 50.4481 59.3568 69.0301 57.0977 50.8903 
50.6482 52.2578 52.7046 53.775 52.6296 50.3461 50.1486 50.8526 50.361 
50.5509 51.1268 50.4876 51.0671 51.0726 51.1676 50.9845 67.1937 67.4729 
69.1592 63.9873 66.464 47.7617 46.2494 47.4513 46.6288 50.8795 67.5825 
63.3713 58.8421 56.8042 65.7129 60.1041 67.8363 65.6004 56.3941 51.7694 
56.6778 58.2297 69.5784 42.3603 42.5162 43.1108 43.3122 50.9255 50.2933 
50.1826 50.3813 51.8942 52.8419 51.9469 53.1874 49.2592 50.0357 50.1361 
53.0098 46.2174 44.1207 46.7553 67.7408 66.3928 64.4496 51.1408 50.6327 
51.6914 50.1768 50.6706 52.8086 53.379 53.6545 53.328 50.7002 50.4362 
63.5156 66.2419 66.0454 51.347 53.3264 45.4427 46.3484 46.5326 51.0178 
50.6629 50.5221 50.4598 50.5152 69.3249 68.4232 61.4945 55.4529 64.705 
66.9066 70.1088 50.2966 50.6264 52.112 51.1421 50.1787 53.6005 55.6072 
50.734 50.036 50.2418 50.7176 50.8913 66.6886 65.1503 60.8451 57.5334 
67.6908 63.0078 50.9569 50.8177 51.2236 51.6155 51.3612 51.7231 51.9823 
52.2697 61.6009 61.0577 57.9643 55.5951 59.3673 52.4343 58.8256 55.1752 
52.0298 50.5853 50.509 50.073 50.0621 50.8609 50.1928 50.395 51.1526 
51.2391 64.6792 61.7168 62.8305 69.1667 50.9773 50.7308 51.5208 50.6986 
50.6793 50.8779 51.8222 50.2231 50.4847 50.8814 59.4575 49.9609 50.1257 
63.4682 63.5889 52.5804 64.0335 65.0807 65.5382 44.447 53.8066 48.4277 
65.8156 50.4308 50.471 52.9314 50.6271 50.1214 50.0309 50.4102 51.8753 
51.003 60.6552 50.3963 50.1959 50.5988 50.8466 52.4429 51.1356 51.1358 
51.7235 50.6689 50.6528 50.524 50.5689 50.2314 53.5372 61.8169 56.9759 
63.6532 52.2689 56.3144 62.0992 63.3387 51.5037 50.8117 50.6489 50.5793 
50.5719 50.9645 50.5574 50.1739 49.6387 50.1098 50.0856 50.4422 50.52 
50.3 50.3703 50.4748 50.5547 51.3238 50.8145 51.569 51.2036 52.2393 
52.9439 52.0303 51.5354 52.7849 50.6457 52.4187 50.6955 55.8364 50.3639 
53.2671 52.7688 44.7204 45.3833 52.753 52.9902 52.7789 52.8331 52.869 
50.5831 51.5993 51.7403 51.0174 51.6281 52.161 51.7904 51.9408 51.6464 
50.4161 50.339 52.1635 42.2683 42.2998 44.0174 42.9093 43.9827 44.392 
45.0576 44.8909 57.7514 52.66 51.7981 52.5846 52.5551 51.2704 52.0801 
49.7565 54.073 51.0646 65.3771 51.2931 51.1053 53.5895 51.2179 51.921 
52.8205 51.8569 50.5032 51.3747 52.5973 51.6584 52.6648 52.1533 50.6837 
51.7966 50.9898 51.0039 50.722 50.5513 50.9809 49.2977 53.4371 49.6722 
51.042 51.7388 52.2037 52.2586 51.6843 50.2146 53.7337 51.4281 51.2236 
48.6954 48.2931 49.443 45.4123 47.8266 47.5934 48.1622 47.1743 45.1816 
44.8103 48.1252 54.0369 50.0658 54.0045 53.9405 54.0671 54.1736 54.1812 
53.9819 54.0159 54.0584 54.1661 53.1054 53.2843 52.8756 53.9034 53.6251 
53.6331 53.3265 52.944 53.1738 53.0543 53.3934 53.4076 51.2057 51.7911 
51.4621 52.1756 52.1311 51.0267 52.6527 52.3404 53.344 53.1449 53.0511 
52.934 53.4247 53.5284 53.6574 53.692 63.0782 60.0648 51.9891 62.8948 
66.2251 69.2437 59.4697 53.2445 58.0715 52.8576 51.5845 50.2167 50.5894 
50.4256 51.0735 51.3466 51.2391 51.7313 51.2949 51.3959 52.2099 51.9352 
51.108 50.2464 64.5379 60.7536 62.2589 44.898 47.0203 45.9763 46.382 
45.8711 51.0857 51.7501 52.1768 50.981 50.9992 51.0849 51.057 51.0509 
52.4236 50.2757 50.1141 50.041 50.8622 50.5513 50.4966 50.4311 50.5614 
50.1999 48.5043 50.9439 54.0224 49.6239 50.7852 58.0851 60.1388 53.7277 
53.8901 53.4393 53.9012 53.7698 53.8633 53.951 53.3348 53.4859 53.2752 
59.1996 54.88 62.9838 59.6574 48.6112 45.0546 44.3359 50.743 50.6738 
50.7594 50.7227 50.4501 50.7769 50.6803 51.2743 50.9533 50.9136 58.8635 
51.41 60.5051 64.0634 44.3958 49.4986 43.8887 51.0148 47.2467 52.2172 
50.7696 50.0735 51.1397 51.5655 50.4984 57.0364 50.3706 56.1916 51.7852 
50.2907 52.0605 51.241 51.1569 54.6266 52.5385 49.3745 51.4746 52.0843 
48.8241 49.4265 48.2983 46.1579 50.2572 53.8767 53.7702 53.4975 53.9286 
53.7588 53.3338 53.2929 51.6968 57.9574 53.3572 54.1334 57.3013 52.2271 
49.1163 52.3316 50.066 51.626 51.9946 51.8894 52.0391 52.4177 51.693 
52.7375 51.4833 52.5471 52.2303 51.5443 51.2963 46.7385 51.3808 50.1877 
52.6669 51.4705 50.9237 51.775 51.5407 50.8546 50.7315 50.5657 50.8752 
50.6525 50.8442 51.2832 49.9876 51.8357 51.4559 50.1118 51.2682 50.1988 
50.0641 50.5993 50.269 50.2511 50.2116 55.7098 55.0406 52.995 54.2433 
63.4141 66.195 65.1184 61.7609 57.5871 56.562 52.6291 52.0429 52.2955 
52.1968 51.6997 51.6186 52.3928 52.494 50.9603 52.1013 53.1089 52.7481 
52.8209 53.1254 51.1371 67.4743 56.7271 70.4908 62.2134 63.2265 57.5436 
56.3162 65.5596 51.6793 50.3903 50.2776 50.1454 50.4932 50.3264 51.2543 
50.9421 49.3605 53.2895 50.7919 47.8497 47.7214 48.928 48.8895 51.4816 
50.9875 51.2781 53.9526 50.581 51.6769 50.8816 53.5489 52.5306 50.7845 
50.8878 50.7746 50.6917 51.4228 52.1043 50.8731 50.7525 50.7983 51.954 
51.6428 50.3448 50.5465 50.0848 51.009 50.6408 51.0752 50.2672 50.0674 
50.5169 52.5416 51.5952 51.225 51.3926 52.0506 51.8141 46.9874 46.5074 
44.5511 45.0862 43.7164 50.4709 51.1039 50.4037 50.2168 50.433 52.0333 
51.3939 43.8044 46.4901 42.2294 42.4358 42.0075 42.4513 42.4128 42.4815 
50.1205 50.6866 50.289 51.4477 51.3802 50.3306 52.5615 53.5589 62.7019 
64.4966 51.0665 52.1816 50.2975 54.2542 53.1006 52.7981 52.7154 52.8434 
50.9692 50.8781 51.9659 51.9452 50.572 50.9657 51.0123 51.8223 43.1754 
43.5401 45.3489 42.8266 43.6927 43.6387 43.1453 46.8337 52.566 52.1957 
50.8597 52.496 50.9087 50.8911 51.2979 50.8063 50.7536 50.3382 50.2259 
51.0676 50.2817 50.7428 50.4621 50.9588 50.4813 51.6872 50.2111 50.2377 
52.0871 50.3433 49.9466 50.5463 50.696 50.4765 51.3432 50.5416 51.5373 
51.2196 50.3935 50.7883 53.8436 53.7001 53.79 53.6015 53.9487 53.8057 
53.5958 54.0388 53.987 53.8701 53.9672 49.9269 50.0768 49.9935 50.6292 
50.5621 52.1265 52.7783 52.0828 50.775 49.6418 47.9265 51.932 47.5616 
46.9854 47.6312 48.0772 44.8702 48.5209 52.1648 47.981 50.8141 51.1226 
49.4267 49.2233 48.3756 45.7542 43.3167 51.1476 51.1664 50.8552 52.4655 
52.4142 53.3214 52.6097 52.3306 52.8731 52.3922 52.3687 51.6574 51.5484 
51.8909 52.7396 52.767 50.6641 51.4004 52.1638 50.4555 51.5954 50.5571 
57.0974 50.5986 50.9556 50.8278 51.2658 50.6599 50.8433 50.0916 51.2004 
50.225 51.0016 52.0486 52.3487 51.3597 50.8665 52.3826 52.7564 52.5949 
50.7986 50.7828 51.0071 50.9651 51.9527 50.94 50.8381 51.4463 51.7059 
47.7351 47.7018 49.3901 44.9703 47.3441 48.7802 49.3329 49.8505 51.4235 
50.5574 50.5062 51.3208 50.4105 51.1464 50.5103 51.2222 50.9396 50.3443 
50.4937 51.2069 50.7096 50.52 51.7705 52.267 50.0875 54.2784 52.4708 
51.9865 51.7018 52.1141 49.4899 49.8878 50.2671 52.1292 51.093 50.6299 
50.6237 51.4992 51.5894 51.6719 50.1582 51.8894 50.9584 51.0165 52.3892 
51.0416 58.3681 61.8461 49.7318 52.3723 55.2077 58.6998 57.5451 58.7048 
56.1676 56.1327 50.794 50.7354 50.859 51.9152 50.6272 50.6715 50.9538 
50.9135 50.356 50.5729 50.7595 50.9449 50.754 50.535 50.6611 50.9979 
51.0435 51.3355 50.8613 51.7924 51.8908 54.2286 50.2344 58.8725 53.5446 
54.1462 55.5601 44.4211 45.9272 50.7206 50.7168 51.3454 50.185 49.7038 
51.9884 49.5651 50.291 51.5611 51.4702 51.8268 49.0367 51.6588 50.7748 
51.0256 50.7692 50.6604 50.7991 50.7027 51.0701 51.0786 53.4007 53.5933 
53.4588 53.4554 52.7477 52.4902 53.4446 50.8782 51.8891 51.8437 50.7825 
51.4815 52.3861 53.6236 53.0323 52.8457 52.4461 52.7746 51.9844 52.3646 
52.5195 52.2609 52.7564 58.2102 50.2529 50.186 50.3872 50.9343 52.3159 
51.0136 50.6986 50.6715 51.2122 50.2753 50.3905 50.3936 50.2612 51.9522 
50.604 50.3666 50.0657 53.0563 51.9162 53.2964 52.9265 53.4344 53.4992 
53.4821 53.5978 52.4725 51.5396 53.1152 60.1254 52.4392 52.6297 52.4953 
70.6502 69.7765 56.9856 63.9147 54.5402 54.3139 51.1294 50.915 50.8444 
52.6525 52.0714 52.7013 50.7929 52.5509 51.0519 47.1092 49.0315 48.6323 
48.5028 48.4959 50.7819 52.6081 51.5122 51.9902 52.0237 50.9017 50.4059 
50.5473 50.8428 51.3309 51.436 56.3181 48.6697 58.9229 55.1004 52.7166 
58.4779 53.9713 65.3156 62.4381 51.1529 45.0614 48.0912 51.116 50.2505 
50.9057 50.2344 50.2209 50.7741 52.4698 52.7035 53.0588 53.3503 53.1791 
50.4865 50.8524 50.82 50.7362 50.9218 51.0042 50.8968 50.3307 51.3922 
51.2148 51.9835 51.2609 51.6168 48.4594 50.4735 50.5497 51.3415 50.6601 
51.6963 49.4198 50.3542 51.0652 47.3014 50.9896 51.7241 51.4075 51.488 
52.9238 53.1783 52.671 52.8283 50.1708 50.1271 50.2655 50.1134 51.1544 
50.1039 52.6886 50.2133 50.2146 62.0753 61.6026 60.2529 52.898 52.5854 
52.5138 52.9489 52.8968 53.1321 48.7888 44.7134 45.7898 47.2511 48.0033 
44.1788 45.1866 46.0968 45.1043 52.9571 51.1505 52.2123 49.0635 49.5485 
50.7335 52.3429 45.9178 51.7356 46.0458 50.9373 51.7531 50.5595 51.3414 
51.1359 50.9328 50.8254 51.056 51.069 51.2135 51.1105 50.8989 50.8308 
51.0631 50.7572 50.8061 50.6167 51.0606 50.7593 54.8008 58.9222 56.3786 
51.4463 51.18 51.542 51.7871 50.902 51.0735 51.3287 51.9008 51.6484 
52.0526 51.8188 51.6928 51.8064 51.8455 50.8921 56.101 51.64 51.8348 
50.7712 50.4322 51.1105 50.1605 51.4858 51.2905 50.7099 51.5077 51.1785 
50.6706 50.5298 50.7934 50.6351 59.9439 54.1551 52.1092 54.9545 52.6015 
52.1984 52.4761 52.4167 52.9746 52.4648 50.5645 47.6754 51.6576 51.1654 
51.3991 50.3441 46.9769 43.9896 44.0766 48.403 48.4494 50.5717 51.0421 
51.8926 52.6289 52.4251 52.3192 53.3872 48.6374 49.8003 44.8284 47.2636 
48.5983 51.2789 50.7945 51.3414 51.9018 50.4176 48.1491 48.7787 52.362 
50.3751 50.9119 51.0291 50.8878 50.7601 51.3008 50.3328 51.8026 51.035 
50.4061 50.8036 50.8141 50.8644 50.8756 52.2913 50.7278 50.8526 50.736 
51.0007 50.7608 49.4978 46.8725 45.0626 47.8407 46.6065 48.3445 46.9114 
44.564 51.2581 45.9407 50.8899 50.8939 51.8945 51.2026 50.9881 50.9926 
50.9257 50.853 50.8704 50.9134 51.194 50.8228 51.772 52.3247 52.1779 
52.0348 50.9347 52.3279 53.1601 53.4197 53.7115 53.9518 53.7152 53.683 
50.2985 50.6534 48.9424 49.0627 51.0577 52.9799 52.3694 51.6806 50.8699 
50.7972 51.8302 51.2703 51.0489 53.3872 52.6024 53.0879 52.1816 51.7105 
52.4614 50.0206 48.4881 48.6284 47.9249 48.2598 49.1815 49.6162 50.6616 
52.4494 51.7732 51.2452 53.7809 52.1516 51.9698 51.1714 51.1319 51.349 
50.9481 50.9171 50.6601 51.3152 51.6151 50.7967 49.7058 50.7815 51.2137 
52.0636 52.3255 51.7261 51.9614 51.8368 50.274 50.9823 53.5147 52.8467 
53.9242 52.4613 52.9012 52.6672 52.9003 53.1372 52.5417 52.6164 52.4074 
47.6629 44.709 48.3498 48.9182 50.6489 48.9744 50.3205 50.3782 50.207 
50.2483 50.1542 50.1337 51.18 50.9668 53.2044 51.4408 51.8062 52.6115 
53.1405 50.8406 50.7634 52.7572 50.4872 51.0059 50.4454 50.7691 50.6048 
51 50.6925 50.8573 51.1834 50.8714 51.4963 51.4902 51.9737 52.0262 
52.1226 52.136 51.7458 52.1108 52.3729 47.9462 48.3218 47.9325 46.9095 
47.2001 52.5922 51.2309 51.0714 51.6083 52.2368 51.256 50.9083 52.0839 
52.6389 50.9533 51.8881 50.8828 51.0858 50.4142 50.9727 52.1266 52.3472 
52.7138 52.4659 52.9113 52.8131 53.1293 51.661 51.5019 52.2648 52.4078 
52.171 52.4855 51.3015 52.0671 51.848 44.9683 47.1589 44.6217 44.6141 
44.2512 44.755 45.682 50.9093 46.2632 53.5118 53.8561 53.3958 53.3463 
53.4214 52.5917 53.0261 53.0837 53.3751 51.3793 50.7043 50.3479 50.3922 
50.4567 50.4772 50.352 50.6188 50.3909 50.5739 50.4954 52.3401 50.2237 
45.164 43.9743 43.6988 43.8468 51.8827 52.1461 51.8008 52.4271 52.3781 
50.7084 50.9029 50.7137 50.6487 52.3912 51.4986 51.806 51.6268 52.7345 
50.5921 50.7123 50.7326 50.3218 47.5891 51.3348 49.7707 49.3832 50.6561 
49.8551 49.2374 50.9362 50.7208 51.631 50.6594 50.856 50.4346 50.7743 
60.7258 51.785 51.0529 53.5225 52.3768 50.9452 50.8513 50.9337 50.976 
50.9312 50.2828 50.0375 50.0837 50.1433 50.2683 50.0901 50.2834 51.2241 
48.8697 50.0305 51.3682 50.6282 50.921 50.4105 50.0112 50.4908 53.2704 
53.3583 53.3356 53.5991 53.4173 53.3947 53.5218 52.3195 50.5416 50.9504 
50.3686 51.307 51.7262 51.0685 51.4678 50.1154 53.3146 52.9856 52.7931 
53.7805 53.1683 52.8451 52.6789 52.3889 53.1296 53.2309 52.9468 52.3885 
52.4278 52.4227 53.1017 52.1328 53.0706 51.1256 52.328 52.1797 52.484 
53.4093 53.5431 53.2929 53.5231 53.5428 53.6317 53.2567 53.6621 51.0373 
50.9291 55.2984 51.6578 54.6602 53.036 55.8856 54.3298 57.1706 50.2565 
53.2948 48.2637 48.9611 48.9761 48.9102 48.8731 49.4398 46.5775 50.9699 
51.0172 52.1035 50.1315 50.9901 51.037 50.6122 52.2811 51.3846 52.2769 
51.6763 52.0519 52.3256 51.581 51.7723 52.0535 52.6967 51.0589 51.9998 
51.4719 51.0091 50.9852 51.3551 51.0553 51.4837 50.8209 51.4541 50.9347 
50.7662 51.55 51.5945 50.2327 50.189 50.3695 50.4741 50.3492 50.05 
50.6066 50.7664 51.8448 52.3117 51.9597 51.6034 51.1782 50.3303 51.0025 
51.5032 50.8367 51.2419 51.5152 50.6255 51.4027 51.2274 51.5791 51.4263 
50.6545 51.4332 51.6129 50.9943 51.8434 51.2265 51.8165 52.6471 51.4034 
51.6156 52.0572 52.1751 52.4171 51.7094 50.6153 52.3382 51.6544 51.166 
54.6994 51.3263 53.106 51.996 50.6606 49.6598 50.4937 50.7651 51.304 
50.481 50.9478 50.3378 46.8855 48.0747 45.7286 43.2508 51.0132 46.4095 
44.0119 43.7066 47.4883 47.8503 50.7833 51.2675 50.8057 50.5091 50.4545 
50.4313 50.5134 51.2087 51.1701 50.919 53.6268 53.0052 53.1412 52.9056 
52.5397 50.8039 50.8232 51.2752 50.5778 50.9436 50.8304 50.4811 51.2701 
52.7835 52.5582 52.4107 52.2637 52.0706 43.3655 43.9896 45.1108 43.4561 
47.1243 45.1922 54.3611 52.1326 53.1688 51.0014 56.8564 57.6691 62.2634 
60.592 72.9049 63.306 61.5799 64.5356 66.7861 66.7181 62.2796 52.5826 
53.7403 52.7709 53.1536 58.7362 52.8257 50.7251 50.495 50.4363 51.1921 
50.4006 52.1462 50.5206 50.4445 50.5258 50.2421 56.7586 52.1753 62.0951 
65.5314 65.2707 62.2241 50.5042 52.3171 50.5818 50.1614 50.2418 50.759 
51.1826 50.5705 53.2273 53.5751 53.6178 53.6402 52.9882 53.8106 53.5491 
54.0137 52.6781 50.5694 50.1905 50.5725 50.7245 50.2781 50.4412 50.4341 
53.4583 53.7921 53.4987 53.7093 53.8914 53.8679 53.7257 53.7955 53.5104 
60.2208 51.6566 52.3707 51.1123 52.0514 51.8663 51.1035 51.9252 52.2345 
52.0479 52.3725 51.0842 52.4472 50.19 50.1913 50.3208 56.3539 65.5326 
57.7829 52.3626 56.5656 57.5989 52.6534 49.5041 50.6078 50.7727 48.8234 
51.7242 50.2941 50.6445 50.1639 51.0597 51.559 51.5217 50.7256 50.9981 
50.8179 51.303 50.583 50.6183 50.7834 50.5532 50.8455 52.0604 52.7821 
50.3564 50.2272 50.2082 50.5014 50.2338 50.3259 48.1002 50.215 68.4913 
50.2121 55.6283 68.8183 62.8194 51.6805 45.8732 51.53 51.6885 51.3535 
51.7317 51.2243 52.545 50.8111 50.8391 50.3593 50.1137 51.2409 51.4295 
51.0114 51.3359 51.4006 50.7511 50.6447 51.2824 50.7049 50.6205 56.1293 
52.6944 51.6085 56.227 51.3082 54.6178 51.2823 52.0622 44.9044 49.0541 
47.0101 46.8637 49.152 49.3137 45.7902 47.4388 45.6327 50.2061 50.3596 
50.3156 50.6282 50.4388 50.2549 50.1089 50.3078 50.013 51.2654 50.897 
51.2603 50.947 50.9542 50.7923 50.9989 50.916 50.9909 53.9657 54.2048 
54.1673 54.0874 54.1546 53.0314 51.6023 50.2976 50.5114 51.3516 52.092 
51.1667 52.0634 52.4298 51.6112 53.4164 53.0166 52.8149 46.7431 48.7509 
45.3995 45.4919 45.2625 50.8157 50.8028 51.4989 50.7681 50.8459 50.999 
50.8865 52.5374 50.7691 59.6823 56.3313 52.3008 52.2615 51.4179 58.2314 
56.256 53.2809 58.2904 55.48 58.9107 51.811 51.5367 56.6996 51.8218 
50.2103 50.3571 49.4766 50.2158 51.8987 50.207 50.5118 50.2983 49.4443 
49.5939 50.5612 48.4837 47.1326 51.6433 53.9273 54.8845 60.0382 53.3652 
52.957 55.6515 65.4494 57.5516 55.7146 52.1073 44.3972 44.2959 61.2085 
43.2976 43.0114 48.8987 43.8764 51.9211 52.3519 51.1361 52.3836 52.5611 
51.6062 52.1419 50.7773 50.2701 50.1113 50.2623 51.5125 51.7227 51.2696 
50.6943 50.9276 49.9947 50.3556 50.1851 50.5572 50.2249 50.4586 50.2755 
51.0145 50.1359 50.1677 50.2767 50.6465 50.4933 51.191 50.9516 51.52 
53.0383 50.3484 50.9662 51.1359 50.2115 53.8582 53.3482 51.9408 50.641 
50.1908 50.6587 51.0686 50.3968 51.7402 51.1055 50.9667 50.8617 52.4196 
51.5099 51.4335 52.2476 53.6664 52.3245 55.0766 52.2033 50.4956 50.691 
50.4598 47.0241 48.0505 45.1165 47.2851 46.044 46.2356 45.9701 45.849 
51.0434 51.6262 51.7493 49.5459 50.9336 50.8214 50.54 51.5464 51.6268 
51.6533 51.7689 51.8483 51.7975 52.2856 51.0333 51.1514 52.0343 51.844 
51.0335 51.0644 51.1038 50.9065 50.9816 50.9247 50.6114 50.7169 58.0016 
50.491 50.8332 50.7578 50.8404 50.374 50.4091 51.3242 50.7938 50.4955 
50.7579 50.4866 50.5262 51.6561 51.7953 51.8243 52.1924 51.6195 51.5509 
51.6135 51.8633 51.6905 51.9288 52.7352 55.5844 51.8685 52.1438 66.3624 
50.2328 51.9675 59.1513 52.1187 52.8101 51.1177 51.3932 51.3568 51.5748 
51.7353 51.4388 51.0352 50.8577 50.911 51.0443 51.1309 51.9657 52.4451 
52.0349 51.1533 52.0134 52.0925 51.0978 51.2107 51.3642 50.8941 50.913 
52.1675 51.165 51.0043 52.0738 52.7631 50.9622 50.9722 52.2954 52.132 
50.9755 55.1237 56.9539 63.6982 51.4348 52.0671 62.0741 63.4258 53.6506 
55.54 67.038 61.9455 66.4671 42.4774 62.2753 53.0452 51.8236 52.804 
53.3466 51.9251 51.9374 50.3906 51.228 52.0185 47.2453 49.5932 50.4545 
50.9951 52.8578 53.142 53.5229 53.1717 52.9809 50.9731 50.3943 51.6251 
51.1412 47.9648 52.3173 47.9449 45.9551 47.765 46.8537 47.2871 43.9895 
43.2369 43.5691 46.9294 52.0767 53.0168 52.9113 52.3903 52.5712 52.7269 
52.6845 52.5948 53.3531 52.1335 52.2656 52.2762 52.6646 53.1291 52.1335 
52.8276 51.8752 51.4818 50.3128 50.9007 51.8674 52.5751 52.1629 50.7416 
51.5293 50.9533 46.2823 50.551 43.5024 43.3035 43.2382 46.1803 44.3698 
50.2582 50.0813 50.6641 51.3998 50.2028 50.6543 48.7356 50.583 48.7705 
53.0213 51.9425 52.9318 50.5186 51.9212 51.9517 50.8577 51.5339 51.0094 
52.2022 50.4195 50.6457 47.7677 49.2952 51.2218 51.6118 48.8724 51.2591 
52.492 52.7008 51.6502 50.5343 51.8984 54.0174 54.2632 51.3519 50.7888 
50.8584 51.3286 51.7564 51.7655 50.9125 51.3085 51.2586 51.4512 50.9725 
52.0998 51.8938 50.9443 52.2233 52.3866 52.6102 51.2274 50.8611 53.3634 
53.1945 53.5552 53.1075 53.6595 53.0466 51.6609 50.8662 52.4942 50.8078 
50.8053 51.9137 50.8926 50.8633 50.8933 50.8064 42.8195 42.6346 43.9937 
43.1045 43.2911 43.5804 43.1907 42.304 53.3046 70.5672 53.5627 53.2097 
53.4414 53.4483 53.4856 53.4925 52.9535 52.913 52.7931 52.7749 52.9092 
52.7338 52.3912 55.6615 52.7419 51.2239 51.4414 51.6979 52.0245 52.0259 
51.7916 52.1716 52.2457 51.7444 51.6373 51.8406 52.0293 51.4468 51.5201 
51.3402 51.1348 49.1865 47.5169 47.2917 47.2664 47.5821 46.419 48.2555 
46.6525 54.3354 52.3736 53.2559 55.531 51.0596 50.4529 51.7083 51.5127 
51.5261 51.5525 51.4204 51.8139 52.846 53.0188 53.1133 52.1539 52.9368 
53.8047 54.0846 52.9671 53.6123 50.8416 51.1966 52.566 52.6553 50.884 
50.872 50.9189 50.8481 50.762 50.9214 51.6354 50.883 50.8988 53.5505 
53.6551 52.8821 53.4832 53.0298 53.735 50.9227 51.4158 50.5665 51.3334 
51.7496 52.1276 49.225 52.9719 50.3557 51.0855 50.7909 50.8532 51.0894 
50.8698 50.8089 50.8311 50.8298 50.7648 51.1708 50.7907 50.7421 50.7789 
50.7254 51.0381 50.8177 52.5051 50.7558 51.7888 51.8004 51.8319 50.3476 
51.4266 51.5309 51.7727 51.8271 51.6892 52.1742 66.7916 50.9944 50.3738 
50.8673 52.4693 51.3447 51.7996 51.294 56.0975 50.6096 50.6232 51.1869 
52.009 51.3364 50.8745 51.5089 51.4403 51.6748 57.0301 59.6483 52.5937 
51.4439 52.862 51.8708 50.5331 50.3189 50.6933 50.4574 51.9096 50.4455 
50.5676 50.6462 50.7776 51.5884 51.0165 51.5285 50.8945 52.292 51.0784 
51.9085 50.7951 50.7881 51.3921 49.6778 50.3703 48.4984 52.1823 52.5214 
51.5179 52.5919 52.1297 52.0538 52.0663 52.0865 52.5028 47.7161 50.895 
45.3938 47.9812 45.09 43.9161 50.7776 50.6665 51.4181 50.5689 48.9789 
48.4183 51.7102 51.9951 51.2654 50.8446 51.7717 52.3312 54.8544 52.6233 
53.5193 50.8875 51.5392 51.4536 51.1786 50.8392 51.3726 50.8729 50.4043 
51.468 51.1073 52.0164 50.9674 51.4312 50.8153 51.3686 57.7243 59.2983 
52.3165 55.5979 55.6863 52.705 67.9325 53.5116 58.4635 50.538 45.3634 
43.9218 47.6511 45.4953 43.7545 45.1094 44.9835 51.3046 50.8948 50.9035 
50.9278 51.2101 51.2712 51.1005 51.074 50.8964 50.9346 50.4275 51.3966 
50.2072 51.0548 50.8256 50.1395 50.2052 50.0989 46.9055 48.0022 48.2017 
47.4232 51.1563 50.9741 50.9789 51.22 50.9764 51.1002 50.9541 50.9545 
50.8637 51.353 51.4352 51.3951 51.5362 51.3556 51.3254 51.3832 50.1924 
50.904 50.5645 50.9621 51.3266 47.1112 51.859 51.3657 50.588 52.2175 
68.2025 53.8644 62.6601 62.8055 62.3245 68.07 51.3431 53.2248 62.1422 
62.473 59.4915 57.6365 58.3885 57.1979 50.774 51.2602 50.9364 50.8259 
52.2866 51.218 50.7753 50.9459 50.1697 50.0799 50.216 51.2042 50.9666 
51.2189 51.4051 48.6566 48.6814 52.6063 53.047 51.2818 51.5268 51.3726 
51.6076 51.092 50.2238 49.7971 49.8412 48.0358 47.3896 47.7075 51.3859 
51.6545 51.9705 51.037 51.9324 51.1418 51.0925 51.9509 50.8206 49.7596 
53.6258 51.6794 50.1736 50.6119 53.5499 50.1371 51.3121 50.9135 51.9787 
50.572 48.9386 47.0861 45.2902 50.4982 47.3864 49.8275 47.9705 49.4853 
46.9345 47.0144 54.196 50.6654 50.7594 50.4316 50.5004 49.7674 49.0542 
45.939 50.563 48.7533 46.2516 45.0819 51.4204 50.8789 47.7636 49.1706 
47.014 49.0188 50.3717 52.1323 50.9586 50.9338 50.9066 50.9229 51.4478 
51.2233 51.1898 51.312 50.4941 50.7432 50.9184 52.3185 54.5218 51.9322 
52.1461 52.2026 53.3509 51.2471 53.3229 53.2515 53.4287 53.4007 53.6667 
53.9657 51.622 51.2977 50.3064 50.811 50.4045 50.3588 50.488 51.8844 
50.6564 50.853 51.5646 51.2103 50.9662 50.694 50.5963 50.7854 50.6838 
50.8399 50.5872 50.6052 50.8493 50.8175 50.7334 51.6248 50.6811 52.5179 
51.5868 50.6061 52.1292 51.4023 50.0114 52.1617 51.4544 51.6357 50.3514 
50.2287 50.0972 50.8897 51.4006 51.5305 50.263 51.3168 46.272 50.7457 
47.2345 50.4023 49.8753 49.1066 50.3302 50.1452 50.2654 50.4332 51.086 
50.1595 50.2258 50.167 50.3071 51.3852 53.3129 53.4555 53.6274 53.5762 
53.2479 53.1374 52.9891 50.8272 50.7235 51.1441 51.0134 51.3603 51.0436 
51.6075 50.9868 52.613 52.7566 52.2038 52.5678 52.4309 52.7169 52.1641 
52.9053 50.8373 52.7002 51.0817 50.7918 51.2747 51.3221 50.8549 51.4965 
52.1778 48.8252 50.5394 56.6152 51.0837 49.8711 48.6865 50.1148 50.7288 
50.4876 51.7895 50.3598 50.7499 51.952 47.2362 50.3669 47.162 47.2301 
46.6535 45.9093 45.8445 45.7078 45.3273 45.2626 54.1715 55.4316 55.5897 
52.9269 50.2052 52.8812 50.4796 57.3602 59.2562 53.7471 46.9503 45.0582 
45.2158 45.3969 48.5859 48.3004 44.8328 54.2298 53.6334 59.7111 54.4085 
55.2142 56.6119 51.1884 53.8952 52.6682 52.6402 50.0855 52.5885 51.8562 
50.3055 51.03 44.6081 51.3269 48.3106 45.5693 46.3737 48.0357 49.5366 
50.0356 46.2706 49.7327 45.9415 60.1775 51.2774 51.3252 50.9295 51.1322 
51.3943 50.7175 49.8744 46.7339 47.5185 46.4686 45.2188 45.588 48.815 
47.665 48.3389 46.1067 50.3224 50.7309 47.6008 46.6114 47.9674 48.176 
50.7416 48.2461 51.0009 51.1587 51.5063 50.7075 49.8789 50.1903 51.5913 
50.1707 51.3164 50.2564 50.2261 50.7209 49.016 48.7594 46.7527 51.7882 
50.8019 50.7678 51.6113 51.0358 51.0023 51.8079 51.2492 51.5016 50.7046 
50.8648 51.844 50.5381 51.3752 51.3376 52.33 50.6581 51.7313 51.0434 
47.2842 66.526 50.3836 50.2237 50.2795 50.3231 50.2374 50.3336 64.6725 
63.3222 56.9218 62.0114 66.9843 53.4764 66.9185 51.491 51.4363 51.5641 
51.5438 52.3037 47.419 51.9994 51.1213 50.7441 50.7647 50.7268 52.6644 
52.8853 50.7157 52.9816 52.7474 50.7819 55.1755 53.3316 53.0944 53.0248 
51.8956 55.0202 60.0654 63.3614 49.0449 50.1753 51.7368 49.6741 50.3669 
50.0556 54.4321 50.2709 51.5264 51.4452 46.3114 44.8288 43.7647 43.7779 
43.5072 44.0329 47.6893 46.9641 44.7245 45.9518 45.0454 46.6547 44.0035 
44.1636 45.5695 52.8573 53.7489 53.6525 53.0372 50.9339 53.1744 53.4793 
52.9682 52.9104 53.0641 53.493 49.8423 49.9188 49.1557 51.657 50.342 
51.4156 51.2965 50.1572 51.2368 50.8499 51.3419 51.6589 51.0243 51.3412 
55.9163 53.6533 55.2384 53.0069 49.7799 52.3483 52.1121 50.6013 50.9802 
50.6688 54.0719 51.3965 50.6602 50.8419 50.6588 50.8792 51.7558 51.0131 
50.6273 50.9713 50.8892 50.0371 51.0163 50.2416 57.2595 66.4016 62.7239 
54.2727 58.4743 48.0734 43.8915 48.0163 48.2157 48.7993 45.0208 47.3996 
46.2309 51.5795 51.127 51.4254 50.9587 51.3682 51.1849 53.4322 50.4144 
50.7198 51.4796 52.4591 51.1465 50.6806 51.7539 51.8059 51.2719 51.1882 
50.6341 51.0784 51.0225 52.5294 51.9291 52.4121 52.1638 51.9592 50.9479 
52.5365 52.138 51.8326 51.2548 52.235 52.1312 50.7644 50.6944 49.1762 
59.3871 59.2245 59.8946 68.5038 65.9966 45.3332 44.1985 43.7817 44.5698 
45.2323 43.801 51.551 52.4621 52.7307 52.567 52.9243 52.5581 52.8397 
53.5096 51.3483 52.0543 50.4313 50.7552 58.9962 50.6675 50.6576 50.7705 
51.8811 50.7503 52.2379 51.9913 50.0471 50.353 51.1202 50.1432 50.2056 
51.2085 50.7199 51.1704 50.4322 50.4839 50.3968 50.7476 45.6889 47.47 
45.1923 47.5445 45.9967 46.5436 52.8077 52.6592 52.9288 53.1199 52.7289 
52.7565 53.0004 53.3025 53.0057 53.5541 53.3634 48.9635 57.6252 52.8065 
53.6876 54.8742 58.614 58.1782 59.9829 50.921 51.3832 51.3687 51.3093 
50.3014 50.2967 50.2322 50.2073 50.2718 50.2536 50.2997 50.4985 50.3241 
51.1781 51.4702 52.085 51.6133 50.4875 51.3533 51.0466 51.0273 51.2077 
51.4149 50.3392 52.4719 52.6045 52.6222 52.7516 52.6751 52.6928 50.3641 
50.6704 50.6463 50.1198 50.2711 50.2986 50.3261 50.8895 50.1814 50.4616 
50.9711 50.8441 51.1624 50.9406 50.9421 46.7529 50.9142 50.5149 52.1886 
51.6618 54.7417 56.0721 50.1448 58.1985 52.6722 59.1837 51.3435 52.0507 
52.979 53.3538 51.7583 50.819 52.232 50.3949 50.6762 50.8001 50.1338 
51.3261 50.1219 50.6258 44.0573 42.9812 44.0061 45.6421 52.2468 52.0365 
51.9686 52.1876 52.1713 52.0858 52.1315 52.217 52.0823 52.911 50.9116 
50.5052 50.5516 53.777 45.5437 48.8229 52.7793 44.4615 51.1053 51.7499 
50.4948 50.3994 51.4498 50.222 50.2603 46.1258 45.3815 49.8161 47.9305 
46.7458 46.089 52.7193 50.6744 50.3022 50.9698 50.6282 50.6197 47.1035 
47.8736 47.4529 46.8997 48.4428 45.566 44.6729 43.742 48.1761 62.5722 
59.902 60.5537 55.5759 54.9071 53.8929 62.1927 58.8165 57.6082 56.9047 
55.6964 51.2163 52.3621 51.9986 50.2367 55.825 64.4161 54.6869 52.2754 
52.1622 52.5586 52.4254 52.4504 52.4332 52.3062 52.371 51.0839 50.7978 
50.984 50.9855 51.1124 51.0456 51.0428 50.9776 50.8016 51.0789 51.1441 
51.1 51.8125 51.9037 51.903 50.3335 50.4315 51.4794 50.6457 50.4531 
51.9402 51.0168 51.8498 52.1278 51.649 53.2308 54.2572 52.0328 52.0904 
51.0241 50.6133 51.8669 51.697 51.2657 51.5351 51.4806 51.1727 51.5203 
51.0948 50.9017 50.8501 51.0865 51.0286 50.9439 51.9029 52.9898 53.6345 
53.2707 51.0503 53.2601 53.5381 53.6046 53.5763 52.9108 52.8471 53.5865 
52.8169 52.7368 53.3281 52.8433 51.2705 48.9511 50.6994 50.594 50.3366 
51.9595 53.0726 53.0007 52.8312 52.9529 52.835 51.6004 53.1386 50.8774 
51.0603 50.7738 51.1645 51.2201 50.726 50.8168 51.1106 50.6509 50.8564 
50.3865 51.1705 50.594 50.802 50.5582 50.6982 51.2916 52.6825 50.56 
53.1291 48.0143 51.7264 52.4118 50.7499 51.78 51.513 51.7525 52.122 
52.1611 47.4968 47.3292 47.8818 48.2962 47.3738 47.8422 48.7645 48.7472 
52.706 51.5955 52.881 50.8037 52.0644 50.6815 52.0227 52.3675 51.6071 
52.052 50.8681 51.8742 51.7915 51.559 51.3115 52.1254 52.1501 52.0095 
50.9805 51.3135 51.2032 51.9093 51.4759 50.6951 50.6557 50.6141 50.3977 
50.4512 50.9037 50.6257 50.7942 50.6371 54.0467 53.9263 54.0779 54.02 
53.8752 53.8289 53.8279 51.333 50.7076 53.7696 53.2003 53.8225 53.3555 
53.9393 53.6714 53.8247 52.9517 53.7024 50.8552 50.8325 50.6331 50.5429 
50.8696 50.7014 50.7034 50.5445 53.3884 53.1759 53.4402 53.3549 53.591 
53.4949 53.5546 49.6512 49.7286 49.8049 50.0442 49.6316 49.9847 49.5721 
50.7924 50.2897 50.636 50.4299 51.2639 51.0403 51.1097 50.9145 51.128 
50.8867 46.2323 46.2164 48.2492 48.1372 51.3775 51.2709 51.9801 51.8518 
52.4806 50.7195 50.672 50.7533 50.3527 50.5349 52.7214 53.4354 53.9738 
53.1274 53.618 53.8995 52.2689 53.8136 52.6086 52.644 53.0444 53.1586 
51.4371 55.0518 50.6783 50.2785 54.3759 51.0129 51.9364 50.9944 50.8297 
50.8752 50.9857 50.9203 50.908 51.1308 50.8433 51.5382 60.2139 52.2263 
52.1507 52.2838 51.9938 51.916 51.8436 49.5527 51.8556 52.5365 51.9626 
51.7792 68.1712 65.2281 64.4058 66.7063 64.0024 68.4502 67.8652 61.2258 
62.5364 52.089 52.4976 52.2307 52.0068 51.9264 52.0094 51.9992 51.6516 
51.7154 51.6787 51.965 52.2909 52.2556 51.557 49.0424 54.9828 51.3469 
51.2651 51.2759 51.2127 51.4519 51.3501 51.2899 51.4811 51.4038 50.7632 
50.7224 50.779 50.8433 51.0065 50.7068 50.9962 50.5726 51.6714 51.7569 
51.8348 51.6802 51.8503 52.1535 52.2597 50.5316 68.6047 50.0765 50.9847 
50.8085 50.336 51.4907 51.9859 53.6809 51.1468 51.478 49.818 51.9482 
50.4114 51.3608 51.0508 50.9217 51.0966 51.094 48.4727 46.0332 49.0419 
50.6557 49.0586 50.0904 47.9326 51.0966 51.0094 51.1238 51.9803 50.924 
50.0468 49.4636 49.5975 48.1904 47.8152 47.9645 49.4425 51.669 50.1206 
50.7465 50.303 50.5242 51.7956 50.4395 54.0373 54.0457 54.031 53.5727 
53.8119 53.6518 53.8948 53.8627 50.2505 50.218 51.4693 50.3258 51.6656 
51.1244 51.1719 51.3288 51.1143 51.1915 50.9129 51.1927 50.9338 51.0857 
51.182 53.3359 52.5315 53.3561 53.0724 52.39 53.1605 53.0694 48.4185 
46.7768 52.4546 45.6481 51.348 50.1845 50.823 52.025 52.0447 52.4747 
50.7961 52.338 53.6269 51.2028 45.1144 46.3603 46.8955 49.0605 48.8731 
49.8999 51.2758 51.5344 47.2548 50.1376 45.1668 46.904 45.893 58.6037 
59.103 59.4236 58.7137 58.3161 57.641 47.2673 53.266 52.5826 60.2573 
53.3774 53.5801 50.9094 50.2236 51.6465 52.1288 52.0657 51.6955 51.6481 
51.842 51.742 48.1287 50.8183 51.8679 50.7518 50.1325 51.4351 49.332 
50.6732 50.66 50.6891 50.6589 50.6458 50.8758 50.5455 50.9518 51.1134 
51.1609 51.4346 51.9671 48.0048 51.513 51.6646 48.9998 44.9425 48.2718 
49.9361 50.3469 50.3019 50.1879 50.2412 50.4943 51.4754 50.9182 50.9022 
52.4998 52.451 53.459 52.7056 51.9957 52.5169 52.2177 51.4024 54.1048 
53.7772 53.8846 54.1278 55.6215 55.4024 56.8639 57.1249 50.6071 44.9502 
44.2572 45.3616 44.8575 51.1006 50.9294 51.0266 51.1189 50.8866 69.9399 
65.316 70.2914 66.0883 60.6573 58.777 63.5767 61.6964 59.3102 56.4021 
57.6366 50.5747 56.8646 57.4642 61.3959 63.4177 58.5782 60.5884 58.9303 
50.4191 45.4652 50.7972 50.834 51.1984 52.8579 53.239 52.8246 53.2645 
52.9804 52.5146 50.5437 50.5949 50.6995 52.9301 53.5987 52.5013 51.9683 
52.5044 51.0228 52.6969 52.2896 52.4944 51.8644 50.3054 51.0133 50.5115 
51.6789 51.1447 49.5124 50.6484 49.5316 53.7628 53.7432 53.799 53.606 
53.8114 53.7289 52.2541 52.1058 52.0098 51.7172 52.5205 49.3212 49.2812 
51.6473 48.8275 51.2938 51.7763 50.3981 47.4384 52.081 52.1732 51.1507 
51.4197 51.1643 52.7994 52.6462 67.8499 67.7668 52.3945 69.7967 51.0081 
50.8397 50.9538 50.859 50.8683 53.5087 53.5127 52.8967 52.3193 53.2373 
52.6574 52.9887 53.2015 52.4933 53.3942 52.7506 52.5782 53.1051 51.3808 
56.414 50.756 49.0672 53.1219 49.8261 52.8989 52.9764 52.8687 52.7675 
52.8092 51.5364 53.4864 50.9433 50.3371 60.2595 50.828 50.817 51.0793 
50.8481 50.9567 51.2044 51.0914 54.0916 54.086 53.991 54.0066 53.669 
50.8485 67.9681 50.871 51.6809 51.5398 53.6706 53.6254 52.8874 52.0571 
51.5156 52.4104 50.7736 52.7094 52.833 52.8147 52.6983 52.5797 52.5671 
53.1168 51.2235 51.1769 51.063 51.2122 52.6586 52.5938 52.6778 52.8037 
52.7996 48.8006 51.1075 50.9836 51.14 51.0752 50.9265 50.9152 51.118 
52.5457 51.5668 52.8296 49.0424 54.1075 51.6077 52.9942 48.3466 49.5762 
46.2328 47.6999 51.0641 50.6835 46.8995 49.209 45.7122 53.3775 53.6425 
53.5058 53.508 53.6936 53.7118 50.981 51.2662 51.1175 51.1371 50.9146 
51.3072 50.9686 51.0581 51.2268 51.4602 51.9382 52.049 50.8358 51.0976 
50.9774 51.071 50.7812 50.7413 50.7834 51.4286 50.9187 51.2678 51.3599 
51.3729 51.3641 69.5615 51.3596 51.458 51.0585 51.224 50.9717 50.8683 
51.1703 51.3208 51.3619 51.3078 51.3399 51.278 51.3764 51.3118 51.3713 
51.2498 52.0821 55.2937 51.1396 50.8545 51.2146 45.923 45.6735 47.1849 
49.0918 48.8564 50.2323 49.4502 46.9392 53.2133 54.0415 54.0454 54.1501 
54.0537 54.1608 54.0803 51.2664 50.7448 50.4872 53.5129 50.357 55.5498 
60.1474 57.614 60.5843 57.0142 59.0736 57.7358 55.5009 52.9188 52.8021 
52.9087 52.7736 52.8802 56.7304 54.8583 53.7828 48.3106 45.4493 45.6902 
49.183 52.6207 48.2117 50.7123 50.8414 50.6232 50.5249 50.0563 50.5455 
50.2697 50.9334 51.2421 51.4199 50.6256 51.1008 49.851 49.4705 50.1955 
49.8151 50.5667 50.508 49.8575 49.3759 52.2169 51.1546 51.1096 52.5169 
53.2878 51.9105 51.4105 50.9781 50.9365 50.666 50.8714 50.2662 50.8917 
53.205 50.4343 50.6477 51.7566 51.3501 51.3781 50.5939 51.0295 51.2548 
50.7766 50.7986 50.8517 51.0625 50.7645 51.1442 44.6161 55.0453 53.3313 
52.4861 55.5571 61.1259 60.014 58.9815 51.5748 61.4464 74.2654 53.8431 
53.9014 53.722 53.8853 53.7906 50.1019 51.4178 50.5296 60.1576 50.7116 
50.6138 50.5048 52.5601 52.2971 52.7681 52.6523 52.5341 52.8356 51.1298 
51.8022 51.744 50.8954 52.1852 52.2013 52.2787 50.9491 51.0433 50.9314 
51.3286 70.303 51.7124 50.4945 50.5325 50.7045 48.5455 50.886 49.432 
51.2066 50.8267 51.4592 51.6801 52.2238 52.1965 52.1355 52.9248 50.7876 
51.0626 46.9124 46.2324 50.8281 51.3299 49.0253 49.1474 48.3508 48.1987 
51.7625 48.3731 51.0554 50.52 52.8131 51.5494 50.9871 51.5717 51.2345 
52.0522 50.8532 53.2841 50.2263 53.8439 55.3427 51.931 51.1324 51.7718 
50.2776 51.6693 51.6882 51.6055 51.6944 50.8441 51.8308 50.814 50.6728 
51.1938 50.848 50.7425 52.8493 50.9642 52.3793 51.2586 51.6803 51.0983 
50.9514 52.1509 52.2689 51.8433 51.8756 47.2582 44.1952 43.576 46.1453 
44.0511 45.6825 43.8633 45.3114 53.5412 53.5291 53.4175 53.6218 53.836 
53.9648 53.8292 51.2305 50.4613 51.1177 50.7697 50.9413 50.5054 50.6957 
50.2783 51.2923 50.3562 52.1102 50.1039 50.6854 53.1487 50.8339 50.6181 
51.2229 53.5042 53.2079 51.1001 48.6467 52.6553 52.5482 54.0366 47.7162 
51.5291 59.0741 47.4583 45.8371 50.9464 47.2412 47.193 46.0189 44.8403 
52.1326 50.416 51.5686 50.6186 53.5638 52.9251 53.947 52.9714 52.7169 
52.1431 52.2336 51.0417 50.9719 51.924 50.7233 51.4953 50.7568 52.773 
52.4974 50.5162 50.5733 50.4596 51.029 50.3778 48.1271 46.4971 48.0779 
48.1586 48.339 48.6103 49.1651 50.1467 49.4205 49.798 50.5922 50.5672 
51.2051 50.2709 49.8879 51.1379 50.7885 51.4883 51.2885 51.2996 51.0744 
51.8087 51.7043 50.7192 50.4804 51.16 52.2235 52.1121 51.8459 51.7052 
50.8654 50.9122 50.843 51.3059 50.993 52.0518 52.0063 51.9802 51.8257 
50.746 52.052 50.6146 51.7332 51.8244 51.8541 50.4991 51.9268 52.0189 
52.1406 52.7034 53.0173 50.599 51.9401 50.1806 50.2615 50.7131 51.1648 
51.6312 52.5868 52.3814 53.0383 52.1245 51.4559 50.5954 49.4558 48.6083 
50.7148 46.817 51.383 50.6207 51.0805 51.2132 51.5332 51.3933 50.9038 
50.9222 50.9533 51.1103 50.8407 50.9701 51.253 51.1701 51.6363 50.847 
50.9221 50.7553 50.832 50.8013 52.8844 52.0356 51.1147 51.4727 51.7775 
63.6307 51.4028 51.6373 51.9153 52.6274 52.8879 52.6401 46.3604 47.098 
70.8379 51.8522 50.8895 50.9441 50.9875 50.9329 48.2082 51.4316 50.4372 
51.2735 45.8289 49.4056 51.6612 50.9653 50.8765 51.3013 51.606 54.198 
54.0963 54.0796 54.0909 50.2559 50.1464 50.0836 50.0145 50.1178 50.4827 
50.3827 51.8637 50.835 69.751 51.8193 52.0907 50.9119 54.1164 54.1163 
54.1545 54.0926 53.9473 50.1311 51.7151 50.9172 50.8981 50.8321 51.0099 
63.4178 50.9058 50.1716 50.6775 50.0812 50.1409 45.4121 44.9644 46.445 
46.051 50.8773 50.0076 44.8255 54.1514 49.6765 48.6082 51.0221 50.8422 
49.3976 50.2011 49.0057 49.7856 50.3828 51.0809 51.0965 50.312 51.3799 
50.612 50.5794 50.4127 50.1375 51.1024 51.1171 51.1354 50.9086 51.0845 
51.0658 51.1457 51.2302 51.2482 51.0925 51.3934 52.3385 52.2874 52.4281 
52.5944 53.1657 52.3776 52.8561 53.1432 53.0659 52.9055 50.8742 51.0655 
50.896 50.8432 50.8656 51.2727 51.0494 51.0978 50.0792 50.1299 51.3195 
51.6773 50.9988 51.0556 50.6373 51.0194 50.9345 51.3793 51.1389 50.8659 
50.685 50.6943 50.7719 50.8319 51.5862 51.6507 48.9435 47.9643 45.193 
46.3612 50.8544 50.5981 50.8118 50.7063 50.8824 50.0695 52.0418 51.3502 
50.5864 50.9617 51.1595 50.9704 50.8038 50.6957 49.9502 51.0717 50.7715 
50.5255 51.5165 52.072 51.7086 63.0014 46.2364 50.788 49.8972 51.333 
49.2605 50.6268 52.1379 51.3161 51.0702 51.2757 51.2638 50.8842 50.8581 
50.9279 50.8815 56.4812 55.928 51.5607 51.932 52.0773 54.0576 51.7843 
51.9643 51.4688 51.1522 50.9129 50.3071 50.5012 50.3952 50.4509 50.6332 
50.6802 51.2631 51.1581 50.987 51.0692 51.0869 51.2207 50.8715 50.9966 
51.4534 51.1817 51.2154 50.5923 50.4686 48.3565 50.692 51.2414 51.3354 
52.3709 51.0831 53.8101 51.1616 51.6753 52.213 51.312 50.1518 50.3015 
50.4827 50.6119 51.2827 51.8378 51.0583 50.5958 50.8114 50.4035 50.1415 
49.1645 49.3386 49.969 51.4281 51.6196 51.3322 51.003 51.1641 51.4915 
51.0401 52.6179 53.2785 53.5138 53.1099 52.2576 51.6045 51.0364 50.7082 
51.9532 50.8608 50.7973 50.9358 50.9169 50.9228 51.0244 50.963 50.9116 
50.9745 50.7838 50.9051 51.4417 50.7848 50.4826 50.2622 50.6707 51.5318 
50.241 52.4418 52.5729 52.3557 52.1303 52.2675 52.9792 54.9457 53.5178 
57.0342 58.3666 58.6146 52.9868 51.7157 51.7094 52.5184 52.4226 52.384 
52.3168 52.0928 49.3922 49.1836 49.8257 48.5593 45.8014 51.3458 51.8317 
51.957 52.0739 52.5514 51.7522 51.1998 51.3465 51.029 51.7268 54.0926 
53.9679 54.0596 54.0393 54.0138 54.0575 54.0052 50.6604 51.1324 51.1271 
50.9153 50.8507 50.7331 50.8874 50.7463 50.9139 51.7575 51.5804 51.6101 
51.7021 51.7318 53.7827 53.6452 52.5972 53.4305 53.5288 53.5021 51.007 
52.4596 52.3695 51.0023 50.4737 51.869 51.2531 51.1416 51.1136 51.434 
51.6831 51.0888 52.2095 52.3959 54.0233 54.0808 53.7373 53.6572 53.5682 
53.6555 53.8443 50.4367 51.2016 50.7096 51.4656 50.2997 50.2614 50.8297 
61.358 55.761 56.1768 57.8278 54.6306 52.4541 58.9416 58.059 54.5362 
53.9203 54.4069 47.4373 45.7025 45.5214 48.3694 47.9742 51.8065 51.5824 
51.6696 51.6247 51.5863 51.4057 51.3752 51.3023 50.2847 67.5671 50.7554 
50.098 50.2649 50.6695 50.2924 50.2539 50.9098 51.7217 51.0096 50.1298 
50.8525 50.0902 53.1003 52.0826 52.2983 52.5714 51.9942 52.3968 50.8642 
50.5967 52.1943 51.1447 51.1459 52.1275 51.9889 51.1057 54.1996 50.9554 
51.6234 51.9259 52.3545 52.8405 52.9085 52.7596 52.3196 53.4933 53.6394 
52.6687 52.0628 60.6178 68.3004 50.6125 56.8506 57.8371 55.9337 60.6791 
61.3085 53.6751 53.7846 53.8413 53.7831 53.7029 53.9512 53.8551 53.9624 
46.8323 51.458 44.6254 46.5537 47.0065 48.011 47.0995 50.9744 47.4069 
53.2901 53.5041 52.5825 53.2157 52.8979 53.1035 50.8999 52.7238 52.7693 
52.7868 51.1135 51.5833 51.8345 50.929 51.2486 55.5043 50.9394 54.9512 
51.3316 52.5559 52.4977 51.0794 53.4887 50.9071 50.1137 50.2112 50.2327 
50.2258 50.2644 50.0868 50.0622 50.1654 50.7837 64.7179 50.947 50.7472 
64.4084 65.628 65.211 64.042 61.7102 51.3266 51.0616 51.4319 50.7737 
53.9173 50.5496 52.2384 50.6006 51.4042 51.3827 52.2906 52.9093 43.7809 
50.7028 51.3717 50.8529 50.8018 50.3383 50.1094 50.428 50.1715 50.4839 
50.441 43.7762 44.4498 45.9039 46.0074 47.34 46.7107 46.6072 47.3501 
47.6992 52.6863 52.874 53.4253 53.7165 53.2433 53.189 53.0669 43.9809 
52.1152 51.5045 51.969 51.9373 51.2935 51.1937 51.211 51.1819 51.3192 
51.7076 51.2664 55.4832 42.6803 42.816 56.5047 58.3141 56.9234 55.1139 
66.4164 52.085 55.2762 51.3733 51.5113 52.7446 50.9614 50.7244 50.858 
50.9382 51.198 51.3889 52.3314 51.6133 50.426 51.3851 51.3867 51.4504 
50.5959 55.2065 53.6408 56.032 60.542 60.3413 53.2258 59.7155 43.6328 
45.8438 45.7922 45.5702 45.8689 44.8338 42.6749 43.7847 44.5916 43.2726 
43.9014 58.415 60.1171 65.1652 59.1249 62.207 63.5952 61.9634 62.5238 
63.8012 66.9598 50.8229 51.0921 51.1206 51.1801 51.1516 51.1696 50.7131 
52.2086 50.8317 51.2808 50.9717 52.9495 52.9569 50.7629 52.7619 52.5101 
53.3574 52.85 53.6051 53.5833 53.5222 51.0959 50.9159 49.9925 51.1338 
50.0954 50.6027 64.3774 64.0679 51.3264 51.1026 51.216 50.7656 51.31 
51.9324 51.2248 51.2582 52.4179 52.4791 51.9581 65.0896 50.8997 70.5793 
50.6987 51.5902 51.5183 51.5814 51.6812 51.4256 51.6913 52.1841 66.9139 
64.6286 62.7047 62.3017 65.0317 56.3709 54.3727 60.3586 60.8957 57.8311 
61.0706 52.7493 52.7862 52.7093 52.0695 51.0908 52.0233 50.9317 52.476 
52.6111 50.5881 50.3579 52.0484 51.3768 50.5043 50.5501 51.5423 52.4295 
51.9599 51.7395 51.8476 51.1478 51.1359 51.0471 50.464 50.6833 51.381 
50.4169 52.4455 52.4846 52.666 52.7309 52.0812 48.292 51.2959 50.9137 
50.403 46.4616 51.3387 49.684 49.5916 47.3787 49.1975 48.9458 50.1506 
49.9442 51.1372 50.054 50.1084 62.4967 50.2106 51.5963 52.243 50.7776 
51.7951 55.7509 50.6654 50.1113 50.0686 50.0171 50.6761 57.7081 50.4435 
44.7983 45.0759 45.4713 44.1804 44.2862 44.069 51.2203 51.3614 52.6678 
50.7496 51.1324 50.9107 51.2081 52.1143 51.8687 51.1708 51.1559 51.2778 
53.099 52.2005 52.8603 52.5255 53.0101 52.5995 53.2704 53.2214 53.696 
53.4412 53.6488 51.3633 50.9604 52.2819 48.759 52.0991 52.7756 52.086 
52.1145 50.9019 50.9384 53.9555 54.003 54.0514 54.1698 54.0158 53.9774 
54.0182 43.9734 44.6842 46.0595 44.7181 46.8595 46.5394 51.6997 51.7445 
51.6633 51.7399 52.4935 67.3845 50.9611 51.8806 51.8888 51.6675 49.9515 
50.7086 50.3926 50.3693 50.3196 50.2704 51.6916 51.0991 51.2332 53.4282 
51.104 51.4713 50.8936 51.1399 50.8969 53.3528 49.071 50.9683 50.0956 
50.2039 51.1265 52.9289 50.6665 52.5719 51.8312 50.516 50.4297 50.6762 
56.9198 50.1434 50.1769 50.0467 70.7278 53.7296 68.8109 53.1518 53.3316 
53.216 50.1805 53.0521 53.0368 51.4355 50.772 51.3898 50.263 50.1539 
51.5987 51.7744 50.4223 44.5193 51.8635 51.4368 51.8262 51.15 50.9346 
53.839 53.777 53.883 53.8007 53.7597 53.8134 53.8784 52.1737 50.4977 
51.9415 51.7578 51.7315 51.4664 50.8855 51.1882 50.9036 50.6946 50.6501 
50.9463 53.897 50.1141 53.2324 52.3522 52.5242 52.9528 53.0346 52.4745 
53.3023 62.0093 71.8029 68.9745 50.8782 50.869 50.8956 50.9021 50.9433 
51.1051 50.5836 50.8681 50.7029 50.7483 50.6485 47.9702 48.1996 49.1449 
47.2367 49.4728 48.6078 48.896 51.0387 50.1934 47.4221 50.1976 48.5591 
48.1757 47.0173 47.273 57.3447 60.3347 59.9089 57.9717 56.4996 72.4964 
53.4617 53.645 53.7229 53.4807 51.2834 52.2297 51.4861 51.2661 51.4396 
49.8665 54.9843 52.6722 54.6625 46.0491 52.0664 73.1552 52.7687 50.7114 
52.1091 52.3067 50.2195 51.0936 51.2267 50.6528 50.7334 51.0476 50.8149 
50.8479 51.5888 51.5031 49.8731 50.9935 50.8045 50.7915 50.7683 50.2522 
50.7624 50.3021 50.4112 50.9919 51.0434 51.025 51.3176 52.7377 52.5724 
63.0697 50.8006 50.953 50.9211 51.2598 50.9831 52.0152 50.339 50.4067 
50.2246 50.6151 50.2594 50.1713 50.1182 51.0642 53.7897 51.1547 53.7874 
51.031 51.4324 52.2427 53.0013 53.0853 52.7628 52.244 50.9283 51.0975 
51.4695 51.4724 50.9117 50.8809 50.8309 50.8616 51.078 70.5446 50.9717 
52.9235 50.8759 51.9191 50.8661 52.2243 51.2723 50.964 50.888 51.7011 
51.9678 53.7635 50.9735 51.5335 50.9052 51.6113 45.7591 44.9089 44.5645 
48.2476 48.3619 47.6081 49.3535 48.5967 53.4733 53.719 53.5837 53.537 
53.4547 53.2399 52.6809 53.4546 60.6027 58.7781 60.7239 51.7309 53.1078 
54.0348 51.9861 53.1141 52.3932 51.0544 50.5957 50.6343 43.1973 42.2027 
42.268 42.0849 50.8607 51.1302 51.3584 50.3761 51.0097 51.3025 51.2799 
51.9886 51.6991 50.8827 65.4491 66.9377 50.6929 51.9098 52.0596 50.4801 
50.1616 50.0213 51.0042 51.1366 50.5243 52.7642 51.0919 50.3879 50.0124 
50.144 50.2251 50.146 50.234 51.1066 50.5699 50.7712 51.0321 71.8436 
50.7068 51.0579 51.1181 50.8784 50.6737 53.428 53.6297 53.5004 53.587 
53.5633 50.9958 51.0336 51.028 51.1256 51.0175 50.9176 52.3003 52.2863 
52.2633 52.1743 52.2114 63.2725 51.7257 53.7612 53.3785 50.8701 50.1747 
50.097 51.5713 50.698 50.2157 59.6606 59.622 57.7598 52.0475 52.7144 
60.8546 56.8582 58.9502 57.3732 59.4652 46.7997 48.3507 45.6075 47.9765 
47.3298 45.1021 50.5814 46.7029 51.3226 51.2177 51.2547 50.8294 50.1742 
51.2331 51.0853 50.9072 50.2587 50.9602 51.2999 51.5805 51.5092 49.7349 
45.9761 51.0377 51.0451 50.9326 49.0722 51.1036 51.3384 51.1708 50.6552 
50.5089 73.6278 54.0192 51.7415 52.1194 51.6402 50.5014 52.0232 45.8299 
45.1601 47.5931 46.3338 46.9254 45.8513 46.8773 50.0139 50.0843 50.2219 
50.1515 51.3307 50.6159 46.6241 51.4928 51.5482 51.6699 51.7114 51.5354 
50.8421 51.4254 53.0326 51.9839 51.5476 51.9628 51.1754 51.3914 48.4309 
47.5399 49.4464 62.6642 50.7273 50.8742 50.7529 50.7108 52.6596 52.4223 
52.4127 51.2774 51.9323 52.8791 52.9298 69.9162 65.8078 50.4632 48.9124 
51.0387 51.2625 52.9341 53.4008 51.7067 44.7187 50.6646 50.5297 48.338 
45.5592 45.1072 50.3966 50.8707 52.114 51.0615 51.1479 52.4092 51.2513 
53.4262 51.0256 53.9383 53.9516 53.9009 53.8879 50.9654 50.9731 50.7758 
50.9041 50.8871 50.9569 51.1103 51.73 50.9144 50.6344 50.7722 50.1138 
50.0049 52.1372 51.829 60.3721 62.3984 59.7045 56.916 55.6638 54.768 
53.1594 51.3055 50.4786 50.848 50.5309 50.1615 59.1574 45.3557 68.1947 
68.2363 61.9445 62.2367 61.604 70.2494 55.2679 54.864 65.1386 61.9741 
70.86 51.9387 51.9092 51.2654 51.4113 52.0749 71.7757 52.233 52.2593 
51.9069 51.8312 51.4055 51.4009 51.5463 51.6563 50.024 50.3637 50.7417 
48.9796 50.0364 49.1383 50.7384 50.1641 50.3786 49.9809 50.9612 53.949 
50.4748 49.5792 47.1736 48.1225 48.8001 50.6879 43.8277 46.1943 53.6723 
53.5697 53.6059 53.5994 53.5472 53.5972 51.3376 50.9228 51.7827 51.1138 
52.6281 53.3766 50.9012 51.4618 50.8992 51.139 51.8433 50.7555 50.7816 
51.1269 51.0608 50.9798 51.3403 52.0146 50.9054 50.8495 50.7947 50.8531 
68.7843 50.8162 51.1865 51.0145 50.5849 50.296 51.3516 60.4884 58.7512 
52.0494 52.115 49.2487 49.1506 45.9629 45.7458 46.3086 46.5257 53.2555 
53.2392 53.1134 68.2438 52.2576 50.4051 52.0079 50.5139 53.1331 50.5744 
50.8793 52.4137 51.6032 54.5077 51.6956 52.2524 52.0482 52.1703 52.1277 
51.9253 51.7149 51.5494 50.6545 50.7807 51.6128 52.4891 50.3511 51.7814 
51.8024 50.6788 50.8099 50.3252 68.0835 63.4751 68.1394 67.3329 53.3383 
66.4793 53.5211 53.5199 53.7657 52.9836 50.1046 50.2426 51.173 51.7716 
48.0624 48.1316 51.0857 47.9481 51.0448 51.568 70.998 69.8576 69.0798 
54.3675 50.2047 49.1721 48.8776 49.4452 50.1464 51.0348 49.9762 52.001 
52.4367 51.7626 48.6928 50.4921 51.1863 74.346 52.5372 71.3283 50.5873 
51.2639 51.5588 51.4145 50.8655 51.4238 51.2178 51.3037 51.1686 51.4115 
50.8021 57.4616 58.6819 61.6935 60.8035 60.4732 61.8091 63.7233 51.3639 
47.3164 49.1167 49.0824 45.1882 50.8834 45.1917 44.5609 51.053 50.8183 
49.679 50.7499 54.4687 53.9349 50.1546 51.3178 53.6157 53.0716 53.3392 
53.217 50.8707 53.6082 55.8643 50.9574 51.1627 45.6182 45.3529 45.1869 
46.6196 46.6906 51.5895 51.3477 60.7087 52.2271 51.7863 50.9287 51.0533 
53.7037 53.5368 53.7705 53.5489 53.6424 50.2538 53.5432 53.1089 53.0642 
53.8635 51.8119 50.7361 51.5173 50.1439 50.2509 51.3474 50.58 57.8895 
54.9902 56.724 54.9238 50.616 46.0755 46.6595 69.8675 53.1152 53.264 
52.4361 52.3915 52.6708 52.6549 48.6787 47.1242 52.1551 48.1083 48.9466 
49.5173 46.2618 45.9875 45.2645 43.9624 43.9824 44.4745 44.7314 53.1468 
45.9539 42.7954 52.9226 46.6759 45.6333 47.3635 51.4835 51.612 51.6914 
51.5249 51.4411 51.2113 51.8403 51.5496 51.6364 51.849 66.709 51.5065 
51.5894 51.6776 51.9164 51.7156 50.6634 70.3052 50.8787 50.2715 50.8057 
50.8546 50.754 50.7838 52.9056 52.1894 54.1814 52.9565 52.3775 52.7944 
46.6302 50.7448 50.5494 50.7687 51.0563 50.0337 42.8509 49.2342 52.8916 
53.2887 53.2662 53.0088 67.0026 68.7711 67.8817 56.8559 54.7323 56.3551 
61.8691 65.3844 61.3837 62.2698 66.8933 64.4647 68.6992 66.2707 70.2953 
52.3154 51.8359 51.1421 51.8464 51.6121 50.2207 48.1529 52.9667 52.8476 
51.5243 51.4576 46.2389 43.1195 43.7815 43.7763 45.7295 45.3184 45.0494 
68.9901 50.8334 50.8612 50.9177 66.7807 50.8317 50.8876 50.1875 50.2313 
50.384 50.4277 50.3656 50.4384 69.1436 67.0187 66.0901 67.3913 68.0785 
68.7049 50.1549 51.4623 51.8336 52.6029 51.6974 51.4588 52.838 52.0744 
53.5879 53.1778 53.2801 53.1254 53.2277 51.7918 52.4333 52.0812 52.3498 
52.3832 50.3379 68.1761 52.3838 44.5271 44.9767 43.3066 43.7613 43.8124 
43.3577 52.0313 51.1089 51.0715 51.0291 50.8415 50.8814 51.0629 51.3961 
50.8301 59.6952 50.8174 51.0936 50.7726 51.7691 64.5873 51.3202 50.9991 
51.5349 52.6475 52.4966 52.4603 70.9599 72.0356 68.7445 50.3092 64.077 
65.71 53.4453 53.3586 53.4871 53.5705 53.2111 53.544 53.5004 53.6563 
53.4588 53.4656 52.6064 61.9028 51.0925 50.7646 50.8173 50.6486 50.6416 
49.7326 52.2057 50.8948 50.9198 51.0588 50.8398 50.9554 50.6016 50.7169 
50.8603 50.3227 50.2658 66.778 51.4826 49.0958 50.2629 51 50.5037 
50.9885 51.1154 50.7165 50.275 51.0674 51.3275 51.0863 51.4786 50.9962 
52.7394 51.1948 51.1434 51.0248 50.8481 70.528 50.8365 53.4942 52.2699 
52.6794 52.2487 52.3924 51.5236 52.7032 50.6314 52.4615 55.0702 55.604 
53.6792 46.3092 45.922 46.4166 47.2596 47.6985 47.6506 48.0814 47.2998 
55.0068 57.4965 55.3059 54.3668 54.6995 58.1678 59.5225 49.5061 50.0041 
49.2168 49.0884 51.0353 51.8108 51.1127 52.0923 51.5522 51.3663 44.383 
44.5074 44.5141 52.4703 43.3269 52.1874 49.2758 51.7992 52.3554 50.5975 
52.239 55.9586 51.3155 68.9743 51.2363 51.4664 50.5406 51.2529 51.8166 
51.4693 68.5264 50.9121 50.7259 51.5445 50.8252 51.9599 51.6188 50.6453 
51.9766 51.0401 52.196 51.7704 54.2208 66.2091 51.1715 51.3416 51.395 
53.2369 53.2158 53.2727 53.2842 53.3411 51.212 54.1391 53.0781 53.1504 
53.0831 52.7444 52.6101 51.9845 52.5591 52.4248 51.8978 53.9557 50.7153 
50.6454 42.5369 65.82 51.5945 50.7259 50.3339 64.6407 74.8871 51.1621 
50.7809 51.6837 50.5107 50.8358 51.5697 51.2363 50.4355 50.5709 51.0437 
51.1589 47.226 48.5876 44.4456 48.2483 47.693 46.6503 47.2083 50.9296 
54.1066 50.6462 53.5053 68.9287 66.666 66.277 62.0689 58.9998 51.4192 
51.3282 51.1895 51.4246 51.3317 51.2472 51.3226 52.0545 51.5872 51.6988 
52.5692 70.4053 65.159 52.3111 51.3429 50.0817 48.3865 50.2578 48.3592 
48.4404 49.4013 50.4344 52.9209 53.7565 53.8233 53.706 53.5921 50.9543 
50.7676 50.8157 51.1189 52.1417 51.0127 51.7397 51.0596 52.8298 50.184 
50.3765 51.2605 48.9888 51.2768 63.2219 62.9817 65.2089 70.1314 63.2059 
60.5652 65.4531 51.3643 50.6059 51.7187 52.86 52.0098 52.6083 52.4613 
52.5152 53.0976 52.1615 50.3475 51.1404 51.322 53.0021 42.2884 49.5404 
48.6374 50.0711 49.0957 47.8081 45.4434 50.2698 50.5151 48.0038 48.3829 
53.5045 50.3569 50.4526 50.3151 50.5524 52.223 50.4451 50.498 50.8086 
51.8582 48.51 47.7632 49.9971 51.6044 49.4618 54.0811 55.8481 54.7013 
55.0487 59.2473 55.8073 60.958 55.3219 54.2705 50.8984 50.9695 50.9548 
51.0363 50.7327 50.8769 43.8215 46.1553 46.9502 48.4305 47.6612 51.1213 
47.5882 45.8162 46.7387 44.8177 45.6087 54.3271 54.6657 52.7422 46.9228 
51.1896 51.1187 51.0572 51.0951 51.8358 52.6291 52.6712 51.9659 51.3559 
50.6718 50.2398 51.2915 50.4578 50.9134 50.5492 51.0167 50.8101 53.6439 
54.2681 52.8161 55.4284 51.8542 52.4053 47.0955 50.9344 50.1299 50.4906 
50.1046 50.2402 50.1408 50.2136 51.0897 51.0886 63.1656 50.8786 63.0759 
51.3316 52.7661 53.0397 52.142 43.5762 50.6372 52.7348 52.7418 51.6963 
51.6826 51.3911 53.5557 53.3261 53.4796 51.3033 50.6423 50.5907 50.1773 
50.5204 50.2401 50.4051 50.6328 51.4687 43.7219 53.5374 53.547 53.3904 
64.807 52.9818 64.742 50.8115 50.8249 50.7393 51.3089 51.053 50.733 
50.9758 50.9634 50.8067 50.849 50.8577 50.8582 49.6427 51.5693 47.6488 
70.9031 52.7135 50.9403 52.3479 50.7462 51.9268 50.8428 52.7292 52.8314 
51.5474 52.5129 53.0384 45.3102 52.4832 46.187 45.4185 50.8085 52.5431 
51.8881 51.9168 50.9026 50.8073 50.8406 50.8641 51.4194 67.391 50.9596 
51.2336 50.3821 68.9742 51.8953 51.2675 50.5306 54.5227 51.3181 51.8793 
54.711 53.6034 50.3515 50.4737 50.4585 50.3658 50.2588 52.8088 52.6904 
52.5804 53.0846 52.6908 53.1639 51.2573 50.5839 51.6112 50.9464 50.292 
50.349 51.0627 50.9706 51.0404 50.9505 50.9789 44.1082 46.8845 45.8211 
46.1715 44.7952 44.7843 52.706 51.2985 50.4846 50.5017 51.5807 54.2399 
54.2276 50.5045 50.9087 50.6627 51.0113 67.7462 50.7718 51.1067 50.8262 
51.1408 53.9947 54.0552 54.0382 54.0259 54.1147 51.2055 51.4956 51.2316 
52.59 52.0735 51.8146 53.9232 75.4796 74.5814 74.3469 50.9607 50.2889 
53.7569 51.4964 51.5008 69.1442 50.958 50.2648 50.0837 53.8419 53.7464 
50.36 53.6608 50.3168 50.294 65.3811 42.3437 42.1562 50.9573 52.617 
42.0281 53.4126 51.117 52.0433 51.8993 50.7318 51.1798 51.709 51.3555 
47.9459 51.6193 48.3811 68.8593 51.0257 50.9909 51.3518 50.8942 51.9603 
51.6 53.3161 53.2038 53.2872 52.9065 52.7875 52.8834 52.7645 52.8793 
52.7505 52.8812 51.026 53.8262 53.8994 53.7396 53.746 50.4796 50.5664 
50.4964 50.5832 53.9877 54.0743 53.586 53.4048 53.9903 54.0695 53.9579 
53.9134 53.8752 50.1297 50.2882 50.8603 50.2452 50.3345 50.5883 50.5571 
55.079 54.0275 50.8895 53.0393 53.4529 60.2128 62.3267 58.4991 60.4454 
59.9695 50.9962 51.1229 51.2117 50.813 50.8159 45.1343 43.5934 46.2582 
43.3813 44.7748 70.1318 44.7389 42.9014 42.2763 54.1175 54.0436 54.0949 
54.0398 54.081 54.1601 54.0289 64.4493 63.9059 51.6278 51.9976 51.6736 
51.7899 50.326 50.5069 48.4462 47.6274 51.5419 54.4896 65.8917 65.7711 
56.2967 55.9407 55.4168 53.9239 53.9223 46.8646 45.4776 45.2211 44.785 
44.0774 45.1526 47.3333 47.4878 50.7837 50.9169 50.8633 50.8932 51.3943 
51.4527 43.6938 52.1441 51.2393 50.6475 45.6938 46.0427 50.5894 53.0055 
53.0751 53.1077 53.0666 52.9691 58.3277 59.1308 63.6492 65.6045 61.575 
66.2454 62.402 66.6681 67.5227 51.2674 50.4985 50.5757 48.1811 51.245 
50.5083 50.0961 50.0982 50.522 51.0373 50.6113 72.3019 51.2201 51.1353 
50.4499 50.9543 50.966 48.9872 49.8626 49.758 48.8715 47.7669 49.3356 
50.2556 51.1382 44.8092 54.4611 51.0338 50.8558 49.8796 53.7216 50.9168 
51.3911 50.8612 51.7136 52.2023 53.3407 56.0106 54.5977 54.3323 55.9671 
51.0519 51.5809 50.931 52.3841 51.2139 50.9242 56.4606 44.7291 58.3341 
47.9199 50.0138 47.0058 48.7425 44.1728 50.5608 50.7318 44.1921 51.1023 
50.7893 50.5901 50.6432 51.9961 50.7687 50.4038 50.2084 50.2331 50.0105 
50.1308 50.5287 50.9127 53.0387 51.0027 52.2475 51.7763 50.6957 50.8156 
51.9637 51.5195 50.9457 57.3476 58.7847 57.6537 61.0607 60.8926 61.4405 
61.0035 63.8763 67.3961 61.0416 52.2875 52.1316 52.4734 52.4829 48.271 
47.7272 49.7952 49.3531 49.9027 45.3454 45.153 45.6106 42.4051 50.5907 
51.2165 53.045 51.3691 51.8289 42.6893 43.9271 45.0487 43.0679 43.0449 
43.1932 67.1728 50.7051 51 51.0884 51.1344 51.4292 68.0597 51.6421 
68.6009 69.0478 52.8021 50.8412 50.5868 50.6516 65.4628 49.7443 47.5905 
50.3223 48.5457 49.8289 51.4895 50.8805 50.9319 51.0636 50.9999 51.0112 
51.0679 43.6554 51.182 67.1245 51.71 50.1548 50.7763 69.9307 65.3077 
65.3374 49.3256 48.8359 46.5444 46.527 46.8149 48.3944 52.9538 53.0605 
53.5353 44.7575 45.5252 45.6968 45.108 44.1507 51.0513 52.6672 50.8662 
52.3965 52.6007 51.0049 51.5032 51.5065 45.4508 46.1238 66.9865 63.7001 
51.5699 52.513 52.4925 62.8806 64.4099 51.2986 51.3359 51.2158 51.1193 
50.7286 65.2852 42.1534 50.7142 50.528 53.6665 59.6287 59.1645 59.0106 
58.6711 58.5172 65.2306 61.1596 59.8017 51.9461 51.9125 51.8476 51.814 
44.8294 45.3081 47.0444 46.3393 47.8525 51.2161 49.9744 51.2663 51.1157 
50.9472 51.3416 51.2015 50.3719 56.5315 53.4445 51.2428 52.5608 61.1837 
50.4884 50.7987 50.7296 50.3914 50.5755 50.519 46.8219 45.5864 48.6107 
46.6992 47.9639 47.4815 66.5353 65.8525 65.4225 66.273 49.7387 51.7706 
50.8609 49.9175 48.3348 49.1878 51.6524 52.674 49.8346 49.8462 52.6502 
49.1671 47.637 47.1071 46.9245 50.7793 50.643 50.5359 50.5801 50.8837 
51.1209 66.006 50.9848 50.9101 65.4482 52.3244 51.4811 51.7654 52.7417 
52.9671 52.8365 53.1145 53.0352 52.9046 69.8977 70.6052 72.9669 68.1292 
50.3545 50.4496 50.1906 51.0596 50.59 50.8843 51.0548 50.2331 54.0462 
50.3295 50.3586 50.2809 50.2268 50.5835 50.5817 52.1325 52.4644 53.3097 
50.9256 51.6296 50.809 50.8403 50.8668 64.0025 50.7662 50.5304 73.6644 
56.9615 60.523 61.8698 63.798 51.6462 51.7419 51.6394 51.5437 51.4147 
51.3956 50.7452 50.5904 50.5803 51.0838 51.0596 59.9163 55.8012 55.2912 
54.1543 50.379 49.2495 50.9612 51.1416 51.1253 50.6172 50.6726 51.6471 
51.7784 52.4925 51.7806 66.2054 50.9895 55.8789 51.2268 65.6832 54.0354 
44.4718 54.0266 54.0942 54.1189 43.4344 69.0089 71.6057 42.7487 43.2181 
47.6495 44.0909 43.8433 51.4097 52.6647 52.7188 52.8294 53.2966 50.8698 
50.495 52.3074 43.7163 50.9266 51.1384 51.1002 52.2459 44.6222 64.1594 
49.2984 51.283 51.0079 66.4381 50.1535 50.5782 54.0137 51.2734 42.6286 
42.2447 64.6777 51.3465 51.3993 51.3611 49.73 48.56 49.2895 47.626 
47.3639 51.9096 51.1279 51.3635 51.5651 49.7198 50.7604 50.9953 50.4554 
51.7339 55.1734 54.2733 53.7691 52.9523 53.6938 52.2099 51.6542 52.239 
52.1318 51.8847 49.9586 54.1728 54.252 54.2055 46.0937 45.7788 45.2438 
52.1549 52.1447 50.4593 51.2288 70.8981 44.3341 50.1986 62.8405 52.3582 
51.4714 50.9866 51.1943 53.5408 53.6155 50.9824 55.7713 51.0492 50.9505 
51.8995 51.7868 52.5421 52.4179 65.0025 52.303 68.2198 53.155 57.9041 
52.2259 54.3244 51.2436 51.8937 50.5465 51.1448 51.2671 53.1062 51.5349 
64.7611 51.2212 51.0616 50.8457 51.0224 50.938 71.5754 70.168 59.4431 
51.9345 41.8259 52.131 51.154 51.2231 52.3459 52.8308 52.7171 43.4765 
43.7291 43.301 43.843 53.9623 53.7729 53.8209 53.7499 53.8161 53.745 
50.2997 50.2587 50.3183 51.2899 68.1355 51.4888 48.8622 52.6055 52.624 
51.8039 52.9227 51.3018 43.746 53.0318 52.9177 68.0738 51.1535 52.4893 
51.9381 53.9549 53.9442 53.8907 53.8886 53.881 54.1121 54.1021 49.7671 
47.3932 46.9965 46.8497 48.4134 48.9124 59.348 61.886 61.9388 65.124 
66.7112 67.5997 62.9429 54.9669 63.688 62.9591 70.4031 69.0256 67.1188 
64.1337 68.3873 72.3296 70.7184 51.2514 51.1165 51.5129 52.2006 52.2297 
62.9234 51.2998 51.1179 65.5032 51.2608 50.3416 44.5471 50.6135 51.1087 
44.3883 51.575 51.9453 52.0349 52.7653 53.2353 52.6347 52.5933 42.2234 
50.0848 50.9931 42.7323 42.8023 70.1949 54.7849 55.1888 52.5288 53.6443 
53.8885 44.7263 51.1285 50.7713 51.1486 50.7527 50.3719 54.1886 54.5739 
54.2644 54.0794 52.5187 53.4648 53.3373 68.8405 52.9726 52.8681 52.2883 
52.9195 52.5422 52.3902 52.7166 52.6091 51.0082 50.9309 50.6814 49.7217 
50.1155 51.4473 50.2292 50.2716 50.1679 50.2162 50.2214 50.2697 50.4541 
61.8091 63.4871 59.4267 54.3062 57.8905 59.5841 51.8276 43.2736 52.612 
45.9046 52.4054 52.8175 48.913 49.7879 50.5311 44.8248 49.7908 49.0281 
51.1445 51.2099 51.0145 51.3943 52.3413 55.0029 50.4467 50.3663 50.589 
50.4999 50.5207 50.8263 49.5644 49.4911 51.0336 51.0067 50.7207 50.4608 
50.5873 50.3324 53.6315 53.5887 53.5053 53.68 53.7898 53.9225 53.9132 
63.7006 51.2016 54.0767 51.4078 54.4455 54.8179 55.4763 57.3723 55.3053 
57.2013 52.0856 53.2855 49.4737 49.6112 66.9496 64.0226 51.2768 51.2338 
51.2931 51.2235 51.2746 50.7818 50.7043 64.6847 50.6215 51.0429 52.6321 
51.3859 53.0334 53.2822 53.1759 50.9292 53.6261 52.8463 52.625 52.5153 
52.8312 52.7157 52.0246 51.2649 52.2907 54.1072 52.4233 52.4926 52.5585 
52.658 52.0192 50.4935 51.2333 51.3829 50.1804 50.2403 50.339 50.3022 
50.7683 50.7229 50.6072 50.5319 50.538 51.5287 50.2432 44.3757 49.9059 
44.9129 51.542 51.5012 51.5799 51.4763 51.3976 50.1933 50.1946 50.3658 
52.0052 67.5115 51.3067 49.6226 49.2548 49.9695 50.7074 48.8049 64.1778 
60.7482 64.1886 52.9175 53.764 52.4511 53.4309 54.0993 57.8746 56.9232 
58.222 55.3206 70.3892 54.2706 52.8385 44.4204 50.2187 42.9218 42.915 
42.5046 50.8145 51.8291 52.3424 52.2801 51.7668 57.1602 55.5498 61.8948 
62.6057 60.2224 58.5084 51.6005 51.8298 65.3328 51.6346 52.4839 69.1119 
51.5602 64.2476 50.4257 52.6245 50.4189 50.0639 49.8824 48.9902 67.7047 
60.1517 51.2994 50.3451 51.2348 50.8479 50.519 50.5956 50.562 50.6387 
51.6474 54.1393 46.6662 49.9628 51.264 42.5715 51.329 50.8555 50.7894 
50.4727 50.3641 51.4597 54.2018 53.9439 54.0439 53.6327 50.5596 54.5685 
50.1957 51.2312 51.7298 51.2306 58.5063 50.8686 50.7981 50.6131 51.1145 
51.634 51.0082 42.3363 52.4385 62.9631 49.3666 65.3093 51.0876 52.0525 
51.2507 51.1661 51.3764 51.4158 51.3632 50.9003 56.7973 51.0861 72.6369 
52.3067 52.2425 52.3532 70.7497 50.7478 68.7944 51.657 53.2459 52.5234 
53.5773 53.3581 52.3398 43.2285 53.5348 50.4828 50.7168 51.052 50.8076 
50.8256 50.4087 70.0391 55.9679 53.3553 52.6041 56.2611 57.7922 51.68 
50.6023 50.5317 53.9363 52.8409 53.1146 51.84 52.6654 52.1672 53.6847 
51.7596 41.8437 51.8155 51.7641 51.2424 52.2418 51.7549 51.3529 52.9597 
53.7917 53.7451 53.8107 53.8573 53.9257 50.8509 51.0075 51.6604 51.0835 
72.4178 51.258 52.8826 50.7105 64.9088 50.7418 50.893 56.8513 51.2715 
51.1733 51.5989 51.7314 50.6636 51.1855 67.431 50.9758 51.6372 51.6199 
44.4487 46.1739 54.1467 43.666 67.4154 64.2798 50.9315 50.844 51.1253 
50.6039 50.5604 67.8179 52.1404 51.2254 51.2219 50.7993 51.1682 42.4308 
51.4395 50.1878 51.433 51.6955 45.8151 53.0207 52.3655 51.3519 68.8061 
51.5417 51.9595 51.7233 50.1242 50.1338 51.3304 51.1983 51.2672 51.0687 
51.1237 51.04 51.0132 50.991 51.6969 51.7609 70.6004 51.158 65.9097 
53.8805 52.5834 51.082 70.6337 50.754 44.8628 50.2488 50.2826 50.368 
50.8501 51.1084 51.2715 51.4729 52.6109 52.3182 50.8344 51.7722 51.0904 
51.0346 51.7001 49.3701 48.1689 46.7312 47.1181 41.972 51.6618 50.5181 
51.6639 51.3384 52.4163 64.916 51.3624 48.409 50.4442 50.5503 51.1866 
51.3018 50.4558 50.9759 50.7578 51.1833 50.7022 50.7084 51.4906 52.2453 
52.6857 63.3463 64.1808 52.5469 52.6698 53.1111 52.8885 62.0621 52.1463 
52.2717 52.1932 67.9576 53.1573 48.8064 50.7847 48.7472 49.2138 52.3774 
51.58 50.8945 50.9366 51.8206 51.0037 51.5879 46.9235 51.5627 52.1595 
52.5945 52.9588 48.4215 51.1157 52.3256 52.2905 60.6121 53.0971 52.1321 
51.7158 50.837 51.5762 52.6326 52.796 51.8095 52.5113 52.6637 52.4367 
51.4121 52.2924 52.9174 52.7668 51.6748 51.8657 51.2306 51.3683 51.3316 
50.6837 51.5959 49.4359 51.1616 50.5672 54.1809 54.192 50.728 50.6504 
51.013 50.7955 50.9119 51.6303 54.1204 46.7793 51.023 52.1962 51.296 
49.3244 50.0993 49.8293 52.067 52.0002 43.2945 51.4696 52.1355 50.6206 
50.3572 54.0704 51.648 53.9411 50.8831 50.7315 44.729 51.3699 51.1462 
50.8559 58.7462 52.1553 59.5546 51.1901 57.585 56.6052 58.5586 60.4382 
61.8073 51.4685 50.8474 58.3683 51.725 49.3281 51.124 50.7755 50.5085 
50.8195 51.0602 50.2222 51.1912 50.3023 50.7225 51.513 51.2159 51.18 
49.6528 51.4433 50.5488 52.5713 52.1933 51.3175 51.9492 53.7881 67.8502 
51.7795 50.964 51.2616 52.7763 46.3553 52.2776 52.1396 52.7822 50.9253 
49.7154 67.4355 53.24 52.3191 52.9282 52.7559 53.0967 52.8953 72.322 
53.4079 50.8594 51.0555 55.3111 54.4689 50.2356 50.9318 51.3128 51.2537 
51.0414 51.0612 52.0632 51.7328 52.3729 55.9694 52.4268 56.0202 53.2499 
50.4302 50.5904 51.096 51.4354 52.9417 52.6401 51.8068 51.7361 52.475 
51.5642 51.9026 50.6609 60.4009 50.6596 73.1766 51.1836 57.705 59.0616 
55.2028 54.5628 51.1523 51.2223 50.5871 50.8714 54.138 50.773 50.4565 
65.4143 51.4327 61.992 64.4985 53.3025 51.5954 51.4204 43.7177 51.6708 
52.9007 52.6399 51.4327 53.6526 53.5449 53.8165 53.5957 53.1319 53.0292 
50.4589 50.5482 51.6423 53.4978 53.3999 51.8792 55.6495 54.1935 67.9993 
54.116 54.1103 54.9148 55.6893 52.144 51.1841 51.942 47.2775 50.1718 
48.4694 47.0954 48.7976 48.3079 47.2655 45.576 51.4342 50.5685 45.0497 
52.937 52.7031 52.7083 52.74 52.722 52.605 53.2012 52.4807 70.4011 
43.0027 47.0392 50.0379 45.7097 46.8827 56.7567 48.593 59.022 52.4915 
51.6666 49.3222 52.4215 51.0983 51.1859 51.0898 49.6053 52.0515 44.2641 
50.6507 51.0115 50.6928 70.133 67.8791 71.787 50.746 51.4778 51.1867 
68.7217 51.4225 52.4429 51.4319 51.7693 74.907 52.0211 50.678 51.2349 
74.0746 71.9403 68.1936 50.5553 57.9352 60.5144 61.2152 58.922 57.1665 
51.9826 52.2891 52.5276 50.1099 53.5468 52.2929 52.3772 52.4069 51.8884 
52.3592 52.5048 52.0108 51.4277 50.1715 50.8881 50.8467 50.5017 69.2192 
67.3638 51.8271 52.5795 52.7109 52.7692 52.6778 43.9294 51.4916 41.9987 
49.3114 52.0712 47.4546 51.812 52.305 51.9841 52.2153 52.1902 52.0664 
50.6882 41.9899 51.7298 51.3794 52.4523 52.3698 49.4964 67.8668 48.8978 
49.0201 45.4943 43.3864 47.1177 52.2795 52.9694 50.8465 53.3605 53.0493 
51.5504 51.3207 51.6328 50.5919 51.5394 51.3267 51.6894 53.1604 64.1186 
52.7697 53.1903 53.251 53.0587 53.0756 53.4506 59.1356 52.2523 52.6758 
51.2182 51.0872 51.3214 52.4171 52.8233 51.4176 51.4706 51.5132 50.4712 
65.1008 51.1112 52.4029 51.5179 51.8742 68.6878 52.6227 52.0591 65.5173 
50.991 51.1618 51.2736 51.2802 51.3376 52.0046 51.9325 51.2443 51.9355 
51.1887 52.0957 53.3833 56.7085 51.3851 51.7931 51.6649 51.314 50.3695 
50.7922 51.3432 49.361 49.2686 48.3797 50.7276 50.4659 49.23 48.5767 
48.5117 52.319 50.8256 50.8773 50.9366 50.8889 52.6091 52.5679 51.1284 
50.9537 50.9394 51.5372 51.0599 50.918 52.1623 69.2491 65.9012 54.9687 
66.0877 53.8958 50.9574 53.3487 53.0478 50.8626 50.8234 51.4949 50.9299 
50.9679 51.9132 51.6602 64.9122 65.7523 51.149 51.5651 51.5126 50.5233 
51.7426 52.5668 68.5601 50.7708 50.1233 50.5851 50.6609 52.2086 51.4698 
52.2314 52.1799 51.9176 61.2378 53.4694 52.9086 52.214 52.7935 51.8485 
51.9661 51.645 51.637 69.9749 53.6402 53.8447 53.5167 51.242 51.8923 
50.5355 50.4906 51.5008 50.5952 51.1118 52.6824 52.5184 52.4736 52.5222 
52.4774 51.0374 51.6773 52.1499 52.2527 52.4616 52.0844 52.2468 53.1924 
52.1343 50.5368 50.2387 48.0252 45.9717 45.8097 50.5082 44.5285 50.7344 
47.6953 50.4366 50.6602 51.356 49.1545 51.0685 49.1746 51.1174 51.0368 
50.9142 50.9334 51.5028 51.1835 51.3676 50.4017 51.6504 51.9074 50.3955 
46.2714 52.8416 51.8647 53.0829 50.4053 50.2339 51.8108 52.5192 50.7832 
50.6513 50.9976 50.8657 51.2678 59.7581 50.8865 50.7546 51.563 51.6283 
51.7445 51.4611 51.5504 51.7362 51.707 51.2037 51.1262 51.0578 51.7323 
50.625 51.1549 50.6225 51.7853 52.1173 50.1162 48.4699 48.8573 51.0945 
50.9233 51.2175 51.4933 50.9373 51.8254 51.0833 50.8107 50.6265 50.9681 
71.9839 50.8136 51.3683 51.3573 51.3835 51.1706 51.397 51.187 48.2485 
50.9106 51.7935 49.7476 50.5018 50.7628 53.9036 52.1236 53.3428 51.5335 
52.5034 51.9438 63.498 52.6883 53.1045 52.7425 52.5208 50.9396 51.58 
50.6183 59.9828 50.9733 50.6877 60.8033 68.7361 51.3887 66.5906 50.3774 
50.4942 50.623 51.4639 63.7651 65.0028 68.1389 51.8194 51.9584 51.2048 
51.5779 49.7332 49.9349 50.663 51.3391 51.3403 50.7543 50.8566 50.7743 
52.6998 51.4987 51.3881 67.2611 50.5474 52.4839 51.0613 51.4928 51.043 
50.7977 51.4247 51.0278 52.2487 51.5586 68.4482 50.8596 53.0909 52.8072 
52.143 53.2635 53.5522 53.094 53.4046 62.5129 64.803 50.1264 50.1862 
48.2168 50.9656 50.9141 50.9011 53.4724 48.5378 51.8976 51.9865 53.1167 
53.3498 53.2165 66.1891 49.1127 62.7246 51.8806 54.238 52.5417 52.1767 
51.4324 66.9813 67.1555 51.3945 51.3778 51.5831 43.8306 51.4509 51.618 
51.0173 68.4687 70.1227 51.1706 51.4289 52.0395 54.2402 67.602 51.5204 
53.1931 66.1496 51.5179 66.8053 51.1299 70.0054 65.3977 51.377 49.5058 
51.4496 51.7981 51.6396 51.3113 49.4027 48.8766 46.1721 52.2586 51.1346 
51.3768 51.0665 51.6844 52.355 52.2015 52.3077 52.2315 52.3084 52.1785 
51.9287 52.3132 52.5603 52.561 52.3961 50.939 50.8777 59.1427 73.4488 
64.4926 51.2281 50.8165 50.5221 48.7559 49.5529 50.5404 51.7404 50.7837 
65.8513 49.0131 52.0449 52.146 52.6197 67.4686 51.3469 52.4881 71.6837 
51.2717 51.2934 51.1983 72.5189 51.0185 52.1536 44.8725 51.042 51.4714 
50.9286 50.9786 52.3406 50.9605 51.141 51.2729 52.5907 51.0562 64.3771 
49.9589 53.7121 45.5057 53.2095 53.0717 53.0762 51.0813 51.2477 51.3164 
51.1496 50.9653 53.2925 51.9091 51.221 52.2289 50.8669 51.3276 52.1189 
52.1811 51.7343 53.9189 50.818 52.4649 48.1181 49.8999 49.5018 51.0407 
52.4192 52.1302 52.2287 50.9686 51.3771 50.9437 50.2737 51.4524 51.928 
51.0037 51.2316 51.3012 52.2619 54.1717 50.4216 46.8024 45.819 71.8435 
54.1804 52.9914 50.9529 51.3115 50.8119 50.9034 50.2046 52.4574 53.2029 
52.5754 72.0676 67.0543 51.8306 50.833 50.1417 50.5016 64.3291 69.812 
50.8536 67.8761 51.4905 42.5469 42.1667 68.5911 53.6282 53.3149 53.0631 
50.5553 53.903 53.9552 53.3096 53.3025 72.1901 69.2035 52.8978 69.14 
52.7486 53.1861 53.0256 50.582 56.11 49.6396 57.3958 50.105 48.8491 
48.7417 48.4582 60.5766 58.3023 57.156 55.0347 58.4747 59.4339 57.0276 
56.0685 49.1132 48.6803 49.7022 51.7323 51.5587 51.2592 51.5083 51.3015 
52.4324 51.6683 51.3974 51.4583 50.7152 51.3035 51.0772 51.1407 50.7166 
51.5393 47.7621 52.8436 52.7513 52.6856 52.1348 51.5548 51.2949 52.5299 
52.4393 50.9425 51.2131 50.4541 51.1324 51.5165 49.9827 54.1793 49.9924 
50.0429 51.5194 51.4758 51.8308 52.218 51.4582 62.5526 51.3362 51.1046 
51.6829 51.3272 64.8255 43.155 50.7847 53.1934 52.2186 52.2745 50.6465 
52.6602 48.8067 49.9759 50.1219 51.1229 51.2656 67.5055 45.8333 66.4376 
50.8147 58.5108 50.272 56.7662 63.3264 50.4858 50.4663 50.4832 52.5025 
52.2539 71.3549 52.8279 52.5859 66.8624 50.8501 53.5759 52.5288 52.4184 
50.6514 50.9944 54.0646 54.1919 54.2247 54.2246 50.6339 51.5534 57.6707 
51.4038 43.4468 63.3516 51.5567 51.031 51.0703 50.8764 44.0288 44.6344 
45.2164 53.7153 53.0353 51.006 50.587 50.656 52.8487 52.8259 53.4176 
53.2844 63.7424 64.7644 68.8348 69.6217 70.5584 72.5033 69.6509 73.3685 
68.3141 67.0364 71.3613 50.7484 51.2744 51.2731 50.9388 50.5087 50.6538 
50.905 45.0726 48.5145 50.9327 50.8946 56.4687 52.2699 56.3505 50.0378 
53.3345 53.141 53.428 53.4304 50.7906 52.8464 53.2234 52.6857 65.2341 
66.112 67.7235 69.4741 69.001 66.7696 51.7468 51.165 51.3701 51.0159 
50.8441 50.8017 50.8981 50.7332 50.8552 42.7873 66.3069 42.4138 63.4789 
51.2111 51.2124 51.1593 50.2327 50.1886 51.284 51.5979 66.0697 51.0104 
51.1166 51.154 50.8581 50.0809 50.9125 50.0187 69.5984 51.9891 51.7734 
51.2643 51.9771 50.9596 51.3809 51.0818 51.7648 51.3997 50.8255 52.7675 
55.331 50.5808 50.4406 52.6286 52.1831 50.9164 50.7035 50.7576 51.5852 
51.641 51.7668 52.0618 70.6414 51.4266 51.6444 49.2772 47.1748 46.2584 
46.4398 49.1963 47.2616 48.4037 50.9468 45.3499 50.5158 50.5892 50.6239 
50.6973 50.0695 71.8399 68.8384 53.3149 54.113 54.1166 53.0254 53.1826 
50.7409 52.2698 69.9158 54.5015 51.3173 51.7691 50.9967 66.6718 51.5876 
52.4139 52.1947 75.0588 61.4718 55.3643 43.0407 42.9801 43.4932 43.4327 
50.9191 51.1629 66.8799 50.9019 50.7147 51.196 50.9566 51.9382 51.4157 
51.2534 50.9696 51.7749 50.4802 50.9793 57.607 51.0626 55.1514 50.7715 
50.761 53.356 52.4833 53.2874 44.4462 53.5595 53.5668 66.8298 66.8423 
69.8349 66.7714 69.9904 42.2213 41.7471 51.1163 51.1818 51.0984 51.5859 
51.3654 50.9543 51.4504 51.2006 51.2048 42.3544 73.9764 50.7249 51.14 
51.0688 51.1783 51.1071 51.1336 50.4932 51.2675 51.0363 74.571 51.2991 
51.3376 50.6748 50.8828 51.1201 50.7702 51.1425 50.7035 50.9437 50.9023 
49.2199 48.1416 48.8959 53.0304 46.4416 45.8055 69.2252 72.582 72.8227 
68.8762 71.8867 50.4464 51.3886 52.0378 50.3996 50.3835 52.1509 51.8448 
51.0911 69.7467 70.0661 51.1648 53.3565 71.9826 52.9691 53.5443 52.7167 
53.4779 50.1931 65.5756 66.4032 50.3477 64.1373 52.2445 51.3649 52.8054 
52.5026 51.1003 76.2622 51.8795 51.4871 51.7897 51.8649 51.992 52.1836 
52.1018 51.5791 51.6861 50.7162 51.7494 50.6989 51.5998 51.2997 51.6998 
44.2429 51.8419 47.5506 63.753 58.038 54.1892 60.2246 57.168 59.0609 
58.047 57.4505 58.7259 60.3454 51.1543 52.4721 50.8017 50.9506 69.8092 
68.3037 65.0489 70.1243 69.6022 69.8961 50.6698 52.878 52.7517 52.8709 
52.9626 49.9811 54.2433 54.2048 55.693 52.2521 51.5169 50.9196 51.09 
69.533 66.7523 51.7455 68.5805 65.1131 53.6319 66.9414 64.2484 51.4769 
51.8145 67.2422 51.2393 63.8765 66.7629 49.7249 51.6841 66.2649 52.1336 
52.1697 51.7392 44.2896 50.1891 62.9713 50.0841 50.174 45.4276 50.3491 
54.242 51.0463 50.6782 66.909 51.3003 51.3166 50.7178 51.4634 51.2498 
51.2024 50.967 51.0524 50.5633 51.0951 50.6484 51.2511 51.5583 51.0723 
51.3185 42.2079 50.6076 53.6412 51.3827 51.3241 65.1565 51.3242 50.9426 
42.242 51.2941 51.1037 60.6456 51.1439 42.7965 51.8167 68.3585 69.2965 
50.8268 50.1314 51.4868 51.8282 53.4258 50.6883 50.6162 50.7848 51.8152 
52.7849 52.9178 52.8394 52.4289 52.263 52.0109 63.8532 53.0841 53.0747 
50.5608 53.0926 50.9091 50.958 51.0201 50.8917 50.857 50.9366 60.2663 
46.3982 46.8944 44.4548 50.8496 52.0097 50.8837 51.4964 51.4918 51.4678 
51.293 67.8545 51.7374 51.5568 51.7127 51.8379 50.0609 51.5442 51.8851 
54.1057 51.3149 50.6047 51.1504 51.7158 51.3553 50.8686 52.0854 53.3298 
53.2978 53.0109 51.3821 51.005 45.836 51.097 50.9922 51.076 50.8054 
51.1434 50.7034 50.6053 50.8796 50.9731 50.5143 70.101 50.5064 50.9663 
50.7843 56.3959 69.8655 55.9697 50.0205 56.017 52.7775 52.6948 50.7253 
53.6263 52.0187 51.3621 51.7504 51.6016 51.345 50.6791 52.0038 51.5212 
50.8866 50.7219 50.7831 50.7335 54.5246 50.856 53.6211 50.0409 50.1649 
50.0642 51.3065 51.2182 51.7278 51.2255 52.5809 51.9419 67.6102 51.2206 
51.5812 50.4007 52.6724 68.2738 52.2407 53.6737 51.8201 51.4881 52.3295 
51.7955 52.1543 50.6545 50.4429 50.5185 63.8508 51.4455 52.0829 51.5292 
51.7899 47.8232 52.174 49.4729 63.8129 71.3938 51.2422 42.2496 71.3682 
51.1772 46.6252 51.1173 51.1095 51.4042 66.6576 51.1758 67.9688 67.8888 
63.8993 42.9687 43.4232 65.0233 50.9223 50.8793 50.9498 50.9069 50.5828 
50.6722 69.9447 63.8753 51.9361 52.0297 67.8299 51.8737 51.5092 70.3933 
51.2804 50.2963 42.1941 50.6632 51.4082 42.7607 51.0999 74.3319 73.9833 
72.9855 52.8824 52.5478 50.5244 67.1135 51.3268 51.7365 71.2742 50.8707 
51.2104 50.5105 46.031 45.4179 49.2231 61.7039 59.9783 43.0648 51.2558 
51.3584 51.3552 51.339 50.8525 51.2698 50.7336 51.226 50.6289 50.8102 
50.7025 50.8502 50.9163 51.2721 51.3697 51.8542 54.1809 51.0068 50.8295 
52.5433 52.1221 54.0547 53.4684 64.0982 73.6176 73.8077 70.5574 64.3613 
62.279 50.1449 64.5198 50.8415 51.3298 51.4794 51.3338 51.7515 52.0706 
51.9447 42.7269 51.2637 50.1766 44.4616 50.8574 51.2782 51.0034 50.9775 
51.0024 50.903 50.9279 50.9125 50.9056 50.9814 50.9763 50.9019 54.1937 
50.9482 44.0189 44.1191 44.6328 50.45 50.5302 50.5026 50.4833 51.2512 
51.1921 51.281 51.3305 51.367 50.7836 51.2654 53.4751 50.7088 46.8593 
53.4825 50.3744 69.7864 71.9405 42.7127 63.2384 49.1745 50.2196 50.2049 
53.1654 47.0342 51.5679 52.4778 53.7902 47.6287 50.5543 51.3951 76.6724 
71.8598 74.4479 73.2878 72.8486 51.1793 50.3367 49.984 50.0305 50.0833 
49.987 47.9677 50.1619 51.6095 60.2044 49.3861 51.5302 51.2926 50.2608 
51.4708 51.4095 51.2334 51.1536 51.1358 50.148 50.935 51.0581 50.9828 
51.1102 51.187 52.5744 52.6448 52.5541 50.0756 49.1637 54.0086 54.7116 
53.1483 53.3984 53.3405 52.2375 53.1045 52.4735 47.4272 47.3638 53.3679 
54.1982 53.7037 53.8298 47.4406 52.815 47.3771 50.9985 51.406 42.4772 
51.5521 51.1035 44.3714 42.3972 50.5595 50.7342 50.6012 52.0535 52.1891 
51.4175 51.5739 69.3316 51.9708 49.9008 51.6066 50.4733 50.9196 50.8745 
52.4069 52.4873 51.2022 50.836 49.7709 49.0329 47.5888 47.5621 47.7263 
51.1995 49.2897 68.4585 67.7195 50.7745 51.2745 50.8332 52.1197 57.0825 
51.2065 51.4404 52.2136 49.9478 49.9913 49.9771 69.4541 52.6069 51.5019 
51.9658 53.4536 52.1256 51.1137 51.7125 51.4636 68.7573 50.9095 51.5875 
66.8272 51.0016 43.1742 51.3754 65.5572 58.5529 50.6948 50.7615 53.0349 
45.7103 50.149 44.0329 44.5466 46.4447 51.4086 50.2406 50.2156 51.5394 
51.4021 51.4123 51.6817 51.4765 51.0682 51.3348 46.7929 46.2458 50.7095 
52.6939 50.0699 52.5623 51.7515 50.0263 50.5198 48.5622 68.0163 65.9206 
62.7889 57.7595 55.2618 56.8885 51.41 58.8545 51.2283 66.2436 51.3786 
51.4576 51.5176 51.5779 51.3682 51.4224 51.9867 52.6057 52.567 55.9922 
51.5508 51.6934 52.8411 52.1687 52.6896 52.7526 52.2868 52.6957 51.4092 
50.0916 50.0861 50.0297 50.7729 51.5931 51.368 51.5283 57.9545 58.2561 
65.2852 53.3022 53.4763 67.118 43.2741 43.7798 69.7148 42.3574 51.3836 
51.3682 51.3605 51.4743 51.5721 61.1626 61.246 65.3549 65.2037 69.3571 
66.6432 51.3185 50.9264 51.5088 51.1046 51.0296 63.7448 64.6347 44.1913 
51.5735 43.1368 68.1954 69.7689 70.0851 47.2105 70.5818 51.4579 51.3038 
50.9246 43.0555 51.081 51.0742 51.2845 51.8579 51.143 51.0356 51.3504 
44.6702 62.6348 61.4686 41.9461 58.1319 51.3252 53.0926 50.6091 51.1861 
51.8948 51.8204 64.0611 70.2509 54.1308 50.8597 42.7467 50.1199 50.1508 
50.0784 51.5927 51.3665 50.2286 52.019 50.946 51.18 63.9374 65.9872 
50.1833 54.1107 54.7954 52.0046 51.0338 54.1151 51.2039 47.0162 51.1659 
51.1122 47.8054 50.9293 50.9757 51.0262 50.9799 57.6784 51.7306 51.2829 
65.1915 51.1148 51.6582 51.4363 50.7895 50.5518 50.5786 46.0787 60.8455 
49.9811 52.9666 52.8541 50.6387 50.62 70.3614 50.715 68.2214 51.7902 
52.0773 51.9437 51.6023 51.2342 68.4863 55.8056 50.4286 50.5368 50.8111 
51.0289 50.67 51.0495 50.651 50.6685 50.7498 69.0792 53.1763 51.0644 
52.1719 52.6896 52.6937 43.4234 52.6889 43.3681 51.3618 51.3379 51.4397 
51.7108 51.3573 51.4949 53.6775 51.7051 51.4558 52.0376 51.8132 52.6019 
52.0338 46.6936 50.0685 53.4609 52.2189 50.9747 51.0298 50.926 50.8309 
50.7821 50.8736 41.9025 53.4922 45.0945 45.0689 44.6417 42.185 42.9566 
43.0482 52.0506 70.7286 50.09 44.0747 71.454 51.1422 71.3406 61.9206 
43.8218 44.167 44.199 50.0526 44.5759 50.1218 50.6777 63.4573 67.3331 
67.789 61.7179 52.0411 51.2659 51.4834 51.4265 61.9788 65.9355 69.1194 
70.5473 51.5534 51.5555 51.4079 51.181 52.9868 48.1749 47.7078 47.5838 
53.0756 42.6431 53.1987 50.0601 64.5984 50.1145 50.7331 50.8378 52.2659 
41.9813 52.1489 41.9699 52.22 52.0043 52.0502 44.2698 45.8066 45.3755 
50.4218 50.3383 67.4128 70.9064 71.1951 68.5518 50.8625 50.6623 50.4754 
50.6757 50.7962 52.2806 54.1692 70.7565 63.5646 51.7018 52.2844 50.1548 
51.3493 51.2775 51.1176 50.8241 51.0501 60.7521 60.1044 57.7667 52.4917 
52.4599 51.9335 47.168 51.8945 61.3645 51.5587 51.671 51.4485 51.6458 
51.5171 51.8887 51.8184 42.0487 41.8368 66.4273 50.91 51.3822 51.1897 
50.8804 51.3454 51.4826 50.0112 49.949 50.8782 46.2642 45.4788 46.827 
47.2055 48.7957 68.553 46.6042 43.8123 44.219 44.7879 68.1159 69.6977 
51.8409 51.2716 65.5181 50.9631 50.9959 50.9451 67.8044 64.0689 49.9197 
51.31 51.5659 51.4437 52.6809 52.6592 53.4761 50.8211 51.036 51.1732 
51.3924 49.7283 49.1352 50.983 44.9975 52.3186 52.9268 52.2661 54.8845 
55.3219 54.0249 54.4622 53.3245 53.3446 53.2198 42.477 70.7863 71.3177 
68.1046 52.3792 50.2403 68.636 52.08 51.7258 53.3631 50.1429 51.2917 
51.7477 53.3982 51.1377 53.5708 50.9868 51.1316 54.906 52.1507 52.5718 
51.0423 51.4958 50.6534 70.4699 68.1653 51.1005 49.5764 52.0193 51.1631 
51.6421 50.8249 51.0093 54.1344 62.8905 51.6252 52.0914 50.9779 51.9347 
51.3333 51.8673 43.2716 51.5749 51.6503 51.5698 54.1736 52.3436 62.0524 
50.9213 49.1153 66.9188 50.7292 52.4531 50.7297 51.6895 45.2862 66.3858 
51.8758 65.1165 50.0836 55.4341 50.9027 51.7411 50.028 43.1548 51.158 
51.7215 51.5131 51.2472 47.0169 48.0042 51.8623 52.089 51.9335 51.2268 
43.343 51.4523 42.0515 51.0503 54.6015 51.6781 43.7369 52.1356 52.4481 
52.6561 52.3654 52.3733 50.2361 50.102 49.8076 50.0534 51.1879 50.1654 
50.2252 53.9997 50.1589 51.6969 51.4407 52.284 63.0739 52.4095 52.0925 
65.0021 52.8445 52.5165 52.7042 52.7749 51.992 52.8027 52.3571 50.7718 
51.6334 54.0024 52.0131 59.5367 69.7892 66.6022 51.3458 63.8947 58.4582 
57.6567 48.3558 53.3385 53.0039 50.3853 50.3194 51.0253 51.4071 51.7581 
51.83 51.764 50.3221 50.5555 50.6866 50.6266 51.9955 51.2544 51.2041 
51.1989 53.97 51.4448 51.4365 65.1263 53.9727 50.536 51.8296 51.561 
51.8481 51.8289 51.9194 51.9385 43.2644 52.4257 50.0233 50.1466 50.6299 
66.6955 64.9909 68.3282 65.1956 69.6142 67.5633 51.5757 51.5672 51.3912 
51.2356 45.5664 51.2366 51.0166 49.435 54.9921 50.8649 51.7287 59.8162 
52.1116 61.7444 52.2641 51.2851 51.2007 51.1547 51.3328 43.0378 43.4568 
51.1587 50.0683 50.7857 49.8822 50.608 50.8557 51.4743 50.3481 50.2765 
50.4008 50.9988 51.5357 51.3945 52.3446 52.5422 52.2217 52.1615 43.5171 
43.4566 43.2557 42.9608 50.0126 50.0702 50.0823 50.9573 52.1001 50.8974 
53.528 52.1873 51.6433 51.8153 51.1057 51.2773 50.5677 51.4112 51.2977 
53.8966 53.5921 51.6198 51.4681 51.295 54.2276 51.315 51.4177 51.7424 
50.9302 42.3526 42.3867 52.2122 52.053 51.593 51.6018 51.5537 66.7359 
51.5866 51.5184 52.4302 52.1465 65.4666 51.7797 51.9332 51.8913 54.2008 
68.9348 50.8607 52.3614 64.3614 51.6491 54.2052 50.8501 52.4085 51.6609 
52.0918 51.7751 51.0035 51.8504 52.1694 43.4746 43.1797 44.103 43.5912 
51.3997 45.7824 46.7697 43.9973 44.4248 68.1315 50.3288 51.5577 71.5821 
51.237 53.3633 54.0019 42.9469 51.9316 51.7538 52.7936 50.2365 64.4356 
50.0968 50.3281 50.2143 52.4581 52.5104 52.3627 52.3057 50.8098 52.2781 
51.6193 44.5008 51.2541 51.463 51.7705 52.1573 48.8222 48.1768 51.4335 
53.5095 54.1481 53.8595 53.8572 50.2743 53.1138 50.1854 52.9263 50.2955 
50.2804 51.7121 52.3342 52.6248 52.6036 52.5797 52.6008 69.1195 50.9288 
51.5732 50.9624 50.8878 42.2383 42.5026 51.4486 42.7486 42.6931 51.7869 
53.7788 51.7206 53.8254 51.8891 51.9202 52.1385 52.1836 51.9653 50.7957 
51.1876 55.0345 51.8714 51.8529 53.9824 53.9851 52.6732 51.1366 51.1154 
52.6285 51.7049 51.5854 51.225 50.7145 51.3343 51.9381 52.024 52.0976 
52.1945 52.0807 51.928 52.025 
METADATA
INFORMATION 0

FIELD FieldData 8
STRESSTENSOR_XX 1 15232 double
-5.30706 -2.84295 -2.20978 -3.01187 -4.26323 -8.26844 -13.6751 4.30556 -23.9688 
-4.85925 -18.7972 -7.09045 -10.2445 -7.92033 -23.114 4.74963 -7.1386 -16.5798 
-10.223 5.99571 -32.9157 -0.774039 -3.13915 1.37423 5.18813 -8.65112 -9.95713 
-9.0547 4.15682 1.87175 2.75718 -1.73827 -8.99012 -3.20738 5.41785 -14.716 
3.84112 -16.8979 7.02695 -5.29372 -7.32667 -21.3427 3.17467 0.317428 2.25077 
-0.945213 -2.11729 -30.7768 4.47495 1.5542 -2.36197 -21.9371 -1.82813 -1.22608 
-23.3267 -6.32234 3.26216 -14.5266 -8.41363 6.60099 0.102189 -0.966984 8.42572 
3.37596 -23.3855 -5.14429 2.81778 -12.8471 -12.1064 -6.72752 -12.6853 -22.1716 
-2.59307 7.56393 -19.1493 -5.8602 -0.312375 -5.76671 -18.4143 -15.184 -30.3351 
2.03849 2.20733 -6.04468 7.74937 -13.4638 -0.365955 -0.110371 -8.73356 0.886742 
-21.3229 6.44772 -12.3864 -5.54992 -22.8481 -8.88472 -8.11735 -5.94318 -0.221808 
2.5573 -4.43909 -2.05698 -40.9209 -27.0236 -15.2251 -30.2301 0.969148 3.98253 
-8.84601 1.2438 0.838879 4.97717 -1.04531 4.19085 -0.55368 -1.77185 7.63379 
-6.56665 -2.53324 -1.83681 7.8713 1.91226 8.04535 -6.54928 0.323589 2.84409 
0.310328 6.44067 -28.119 3.41544 -4.54157 0.222525 -16.8835 3.71405 -10.1353 
2.298 0.684856 -5.32415 1.57066 5.2509 -18.1178 -1.15256 -1.41919 1.54326 
-21.574 1.05955 -2.5509 -4.78009 -33.0222 -2.59208 -2.52672 -5.84506 4.18897 
6.82172 -0.207672 -0.583007 4.14883 -20.1877 0.202595 -14.3822 -6.86307 -6.06477 
5.52339 3.29517 -1.85402 4.83004 1.15586 2.7727 -13.6213 -9.69257 6.30935 
-4.2866 -1.71075 -2.33979 8.23062 7.91428 -8.69468 -20.1091 1.45222 -2.47833 
-0.87389 4.6902 -3.05065 4.28532 -10.506 -8.98686 -8.36941 -12.1345 -10.2534 
-7.68418 -5.57269 -8.10272 -9.32253 -25.7742 -5.04382 -5.49578 -6.24149 -7.71695 
-0.233479 -7.24858 -8.26962 -5.51145 0.531682 -14.3458 7.15563 -1.01941 4.06509 
-1.66666 -4.92357 -4.94943 -24.8187 -10.6916 -1.27883 -5.05699 -4.27966 -1.73244 
-14.6441 -5.94794 -7.81828 -0.814269 -19.3954 -11.4964 -8.75992 -25.9634 -18.1691 
-10.2481 5.63121 -8.86985 5.85301 6.99978 2.31305 -4.34131 5.47031 -2.84096 
-17.5477 -1.88307 -18.9883 7.1724 -13.8999 -22.5603 1.9324 -7.25421 -48.417 
-7.90582 -3.02177 -10.8009 3.13894 3.41935 -8.83049 -16.0513 2.42853 -0.829838 
7.06686 2.06439 -11.4068 -26.4472 5.71898 7.30943 0.470148 1.53356 4.43466 
-28.0748 -37.0497 -18.8754 8.29194 8.11194 8.11371 -9.68234 -14.7726 -9.49681 
-13.6526 1.88163 -47.7448 -13.4304 2.18432 4.71844 -5.56779 -1.75148 -15.9022 
-1.58732 -1.8858 0.257923 -6.44697 7.91186 3.28685 -24.3533 -22.06 -22.157 
5.8203 -9.0847 -17.0232 -5.79588 -10.0673 -19.2154 6.34143 7.68808 6.30397 
-37.549 -33.454 -6.52674 -5.43707 -5.02594 -1.23643 0.727525 -23.1182 6.64376 
0.730701 6.78303 -9.52929 4.15284 -0.882672 3.31608 4.10091 -19.437 -7.58989 
-28.7603 -7.87606 1.02971 -2.31143 -7.25354 1.02559 5.78275 5.16307 2.36257 
6.42152 0.268569 1.83046 7.5068 -0.662425 6.73973 -0.654146 4.59279 0.7854 
1.30869 1.37183 7.15522 7.30911 -5.32633 -5.16412 2.05557 -11.6119 4.11144 
5.79949 7.77095 8.1543 -0.507306 -1.56749 1.80979 -1.93674 7.50719 2.77832 
4.92194 1.09625 4.98636 -11.3267 -10.93 -12.4503 0.314046 2.94691 1.9525 
2.85158 2.39113 2.08033 6.61797 8.22909 4.07434 5.43747 8.29552 -27.3955 
-24.6964 -38.2493 -10.4283 -13.0715 -0.67554 -10.2266 -13.8637 3.4761 -12.5076 
-0.886373 2.02059 -22.8819 -30.4883 7.68814 7.02823 6.16401 2.19556 -0.271004 
-12.206 -8.45191 -3.86435 0.423825 1.56515 -0.919427 -11.471 -15.2493 -22.6402 
-44.4802 5.66326 7.17046 -1.97323 -36.1031 2.13541 -2.47628 -0.804981 3.84668 
7.2707 4.39857 1.07871 2.34804 2.9789 -7.58301 -19.4472 -10.52 0.499787 
-11.2613 -11.7884 -2.18025 -2.30031 -13.654 -7.45727 -4.55618 -8.19734 -7.29346 
-4.44089 -4.52517 -1.68282 2.38029 2.35757 -19.0986 1.39563 5.15625 -39.43 
2.52703 0.898036 -1.71418 -2.84627 -1.19436 -0.567027 -2.19683 -3.51823 -13.4723 
-42.2654 -6.37817 3.73344 -5.94383 -13.1171 4.98643 1.53201 -10.0939 -34.3353 
-14.6473 -13.492 -10.2451 -0.997523 4.40784 -7.82504 -7.95465 -5.28952 -7.1685 
-12.0239 -7.96075 -7.53703 5.73928 7.04768 4.44406 7.86838 -38.7309 -15.696 
-32.5186 1.44074 -30.5087 4.6938 -26.4099 -6.58796 -10.2644 3.39183 -4.12993 
-6.14087 2.16512 -3.3674 -7.38486 -1.98655 1.62821 -4.75077 -8.17536 7.37132 
-11.7112 -12.3701 -4.32754 -1.9824 -0.0141935 -0.119217 -27.7023 -40.2231 -0.280824 
-2.51582 6.27752 0.546113 -1.55153 -3.06748 -1.17848 -0.534774 6.0387 6.23664 
-10.3069 -5.02675 -7.12397 -4.81358 -2.30506 -1.51213 -9.55876 -9.70614 -10.6503 
-27.4505 4.19306 -4.44281 -5.20275 -9.57211 -36.0728 -25.3786 -24.5241 -5.73458 
-1.17341 -1.83146 -1.24271 -25.1988 -29.4448 -37.5888 -11.1311 -3.13285 -14.9221 
-7.6735 -3.63249 -5.15747 7.06707 7.45024 -12.3123 7.72867 -5.31412 -5.53187 
-5.69413 -10.1501 -10.1057 -18.0514 3.31946 7.19716 -7.01493 -5.83818 7.92052 
0.926699 6.92225 -0.333185 4.31507 6.77535 -1.76148 -6.86186 -8.1402 -28.7498 
0.897781 -0.859771 2.09475 2.92927 1.71356 -1.00883 8.03177 -7.07079 -3.95691 
-7.95506 -6.31651 -14.4799 -13.5561 7.87967 6.39285 8.38749 7.40805 6.98936 
8.11932 -0.445182 -1.82896 -3.57045 -23.8907 2.55699 3.8936 -1.2426 -0.570602 
-1.90587 -0.922361 4.10539 -19.9052 -4.32811 2.48289 3.4753 4.33633 3.44012 
-23.1801 -0.720818 -1.00843 0.0581779 7.25911 7.36878 2.48901 6.37013 4.6194 
-10.6033 3.97436 -3.18469 3.3981 1.29984 1.09664 -11.2083 -6.48855 -0.0227827 
-5.07425 -7.51305 -4.43047 6.00638 0.698588 4.48266 -4.93102 -3.96203 -5.55032 
5.26643 1.06025 3.47101 -10.1577 3.06393 7.9316 4.1674 5.06083 -7.89014 
-21.9448 -24.4577 -6.52542 -1.99891 -8.10943 -7.5491 4.63946 -21.5348 -2.67262 
-8.31571 -10.464 -3.76615 -25.2977 -3.18809 0.00878358 -2.24509 -1.93976 3.90716 
4.82177 2.61457 1.59709 1.00809 6.41105 -2.56856 -24.5784 6.03931 -2.47191 
-5.22218 0.781249 0.086834 1.50347 8.41605 8.23494 -1.50319 6.06777 7.80671 
-0.846263 -3.64913 -13.3898 -4.48502 -9.46556 3.62025 -8.81933 -8.06547 2.20757 
0.475903 -1.70593 -5.52413 0.367751 1.57076 7.50091 7.31348 7.96675 -2.68588 
-1.52807 3.11317 2.6331 7.71696 7.79069 7.9085 -19.2554 -19.9353 3.67255 
-19.672 2.47928 3.74228 0.440359 -13.0315 -0.603128 -7.04704 -17.2852 -3.74269 
-1.34821 -0.183231 -2.43941 4.52189 -13.3077 2.01319 -9.85062 -11.2727 -0.0989429 
-7.96272 -7.0172 4.68207 2.55661 0.495358 8.17405 7.56914 -8.79589 -7.37783 
-27.4773 -13.4649 -13.5467 -6.99295 -14.5726 8.13162 6.12495 7.9243 -6.6195 
-7.85247 -9.43704 -24.6453 7.74477 8.44201 8.09845 -8.00527 -2.85566 -45.4912 
-12.2112 -0.376727 5.0083 4.77188 1.14848 4.6067 -4.65153 3.67323 -2.04627 
2.86436 4.18525 2.5702 2.35487 -4.44632 -9.79322 -5.85661 -8.5466 -8.96734 
-1.65812 1.82222 1.485 -16.7971 -21.6679 -0.921162 -0.217669 5.5871 4.34126 
-36.0288 -10.8182 -4.42665 -14.9361 -1.17562 2.65923 -0.300958 -12.1913 -13.3605 
-8.71753 -1.58915 -8.92656 3.45462 3.53942 -1.29003 -2.18368 -4.28318 -22.6894 
-23.9894 -6.62642 -28.4171 -16.2477 0.0537182 4.84354 8.30247 -18.6836 -6.56096 
7.01642 -9.4971 -7.75398 -7.27138 -6.3161 6.99174 7.98787 8.15805 -9.16045 
-9.43022 -7.83181 0.565822 5.71199 4.41571 3.66708 2.44448 0.993495 1.40218 
0.231633 0.447416 -10.4058 3.91482 -17.2646 -1.17257 -16.7625 -17.6128 -33.8292 
-40.3663 -33.4896 -34.366 -0.69491 -18.7273 -4.46125 -21.902 6.96798 -9.90576 
-9.1476 -2.76448 -2.43369 2.83871 4.68407 1.59398 7.73154 8.15164 7.55445 
-0.883515 4.78942 6.54396 -3.60729 5.70825 0.857954 -19.4918 -32.354 -8.05634 
-0.969147 4.67916 -1.17502 8.09709 -8.01278 8.13677 6.52236 7.73208 4.04144 
1.31807 -1.14174 2.49814 -2.23972 -6.4479 -9.7432 -16.7386 -11.8073 -8.6498 
-17.7203 2.40651 6.40263 1.83725 -4.03142 -15.6697 -23.9245 2.31657 0.909824 
-18.1675 -10.0622 -9.64504 -1.24496 -5.24856 -6.10502 -9.32293 -14.0443 -7.42622 
-1.11244 -21.6954 0.994004 -18.9186 -9.77649 -9.24155 -15.05 -13.4908 -28.4624 
-35.929 -2.54367 -2.28174 -7.27735 -9.75464 -16.3127 -26.106 -12.7455 -2.92423 
7.48198 -0.971889 -7.78405 -25.6459 -51.5993 -22.5192 -10.5706 -28.0313 -12.0844 
-15.0249 -11.5985 -12.0293 -5.87516 -13.0009 -2.20111 0.678346 0.582881 -8.93383 
-2.84991 -9.0173 7.20156 7.87019 7.37731 7.32198 -5.20135 -13.035 -21.1886 
-20.2659 -11.9802 3.00301 3.05784 -21.1554 -5.98416 -1.06416 -14.6051 -21.1636 
-8.02325 4.8564 -2.17592 -7.37458 -33.5189 -2.2277 -48.8134 -47.5483 -22.3287 
-25.1458 -11.2404 1.97748 -17.9946 -21.8895 -5.0618 -0.0712447 5.56341 0.488172 
5.34596 4.45905 3.21918 0.414184 3.47387 4.32176 4.10075 2.29055 3.96545 
5.78275 3.07993 -6.17488 5.63109 1.60806 -42.4933 3.9879 1.56636 1.22873 
1.73832 3.92214 1.98678 3.40719 8.35639 -3.16796 -1.15829 0.94261 4.90483 
2.33787 3.67257 -7.92172 -5.64587 -7.17986 8.3022 2.13173 -32.6078 7.83415 
5.89782 7.30513 7.83668 -4.23355 -7.86815 -6.00851 -18.3887 -6.56593 -0.574664 
-1.05014 1.63788 5.00734 0.592906 0.0949857 -41.3637 -24.5264 -7.50247 -13.1294 
-25.016 7.74574 8.14445 8.09106 7.13577 7.54267 5.26062 1.43022 5.71456 
7.79395 7.57303 7.85303 8.11808 -12.0136 -5.91348 -23.7724 -9.55931 -9.1696 
-2.99179 2.54507 -34.4784 -33.6661 7.40717 8.24448 -3.81925 4.4445 -14.9263 
-4.04852 -2.94805 -7.32126 -1.7979 -2.78857 -6.56949 2.92399 -15.7473 -20.5875 
-18.1919 2.38433 1.20812 1.82144 -3.02828 -13.3853 -7.09553 -9.22794 2.71597 
2.31644 3.17654 1.00929 2.02375 4.97501 2.27774 2.08384 -1.71022 3.3058 
3.45581 -0.755205 -7.85773 -21.0284 -26.1389 -10.5213 7.81318 -3.9701 5.657 
-1.30917 -7.96775 0.984093 -20.3394 -0.876528 -1.66734 -32.712 -21.6846 -29.3359 
-34.6503 -14.325 -17.4263 -8.17966 -6.89191 2.21995 3.11742 -8.85495 -9.42311 
-0.196395 -3.3123 2.32721 -16.5692 -31.4399 -16.7892 -20.7601 1.94497 0.88194 
5.54979 5.37937 3.6277 0.678535 -21.0031 -38.9615 -17.6596 3.87739 -20.8393 
-29.2857 -6.09825 -0.987681 3.22598 -1.98616 8.34543 -4.24282 2.76415 -8.17118 
-6.22809 4.41442 7.29512 -9.32742 1.93575 -11.1487 5.86091 -0.755783 -0.641086 
-1.16279 -2.58323 -18.3803 -32.8462 -4.79279 -5.96843 -4.81409 -0.970663 -11.5348 
-3.50357 -19.286 -6.27806 -1.40271 6.93638 -30.8117 6.24902 5.57386 2.42301 
-26.4559 3.44015 1.00767 6.52754 -14.1527 -9.88377 -10.3778 -28.3435 -16.9879 
-0.893595 -2.24512 -1.73194 -0.599813 -1.61269 -15.858 -30.5995 -16.8019 -23.0134 
-15.0836 -12.3418 -6.62615 -8.53575 -10.1047 -3.49213 -1.95013 -4.62411 -8.862 
-4.08919 -8.65744 -31.3 1.8882 -0.0456503 -1.0756 -3.4571 -0.695686 -7.21686 
-14.4256 -1.54683 -7.01541 6.29715 7.62101 5.24015 -1.26541 4.93224 6.61882 
2.39423 0.779951 -27.2252 3.86561 6.39594 3.5029 1.68016 0.452176 3.79083 
-14.4644 -3.17659 -3.51912 -1.00793 -4.84207 1.51159 5.44161 5.1689 -6.64356 
-6.20163 -4.8383 2.21526 2.22127 -4.7072 -2.93287 -3.65893 1.88354 -7.8687 
1.22281 -16.7235 -5.88259 1.83208 -13.0909 -15.281 -16.4687 -8.13833 -5.60342 
3.70852 2.65742 5.23831 -2.38045 -5.65831 -3.62407 -19.7184 -3.58556 -7.99856 
-2.1665 -7.42195 -9.69276 -19.9628 -33.2929 -18.6179 -26.2975 -8.87394 -11.9619 
-12.9353 -5.32985 -3.72455 -6.38506 -14.9796 1.55202 -6.3759 -7.05128 -5.15579 
-32.2635 -20.7741 -23.736 -4.95723 7.89383 7.98658 6.27101 -24.4187 -3.65902 
-10.7504 -6.81129 -4.92649 -24.0927 -0.92314 -3.84609 -5.93265 -17.235 -10.6557 
-27.6261 -10.8727 -13.654 -29.9074 -27.2393 -34.6049 -4.42054 -8.44912 -8.77563 
-0.81246 7.88483 1.11212 1.57631 2.41394 6.68877 4.56709 6.51877 -9.84936 
-6.51636 -7.2808 -4.91683 1.4545 -6.43144 1.7577 -3.47847 8.34001 7.2813 
8.00601 -10.5411 -2.296 -1.61087 -8.52672 -11.9401 -11.5825 -4.82331 2.88472 
3.94494 -1.80994 -9.51898 -0.938867 -9.61019 -10.932 -1.42003 -7.9194 -2.57212 
-1.42068 1.2561 -4.08491 6.5535 8.29208 5.8541 2.23247 0.178957 2.28458 
-10.896 -37.9373 -31.2922 -22.4716 -29.1183 5.71634 -30.1991 -24.0015 -24.7466 
-3.87511 -10.1686 -4.38721 -7.02777 -20.827 -0.358305 -9.3831 -32.059 -33.2711 
-21.7231 -6.50075 -5.61271 5.26127 -10.3459 1.95282 2.56043 1.29443 -2.19525 
6.62178 8.13282 -30.031 -16.1513 -11.1244 3.2267 -8.83261 -6.58918 2.74319 
1.91388 -3.53057 -1.15351 0.243718 0.0173873 7.62639 7.96837 7.10771 6.27536 
-0.801576 0.0386471 -13.7938 -14.9448 -22.1752 -20.2297 -33.6137 -36.9212 -0.326333 
-11.6898 1.33517 -6.32547 -12.785 -3.24708 2.05245 1.91468 -11.8195 2.24428 
-2.39628 -7.0861 3.27925 4.63072 -1.55535 -1.84908 -0.685958 1.64836 3.9393 
0.444555 5.88902 6.97117 3.70438 4.93542 5.63232 -7.08687 -14.7667 -9.86922 
-8.97358 -7.60034 -3.37644 -8.43342 -24.9093 1.39746 1.14518 -4.37619 5.57489 
4.09499 -36.9446 -37.9621 -0.870099 0.840194 1.69314 3.47116 2.50205 -2.021 
-5.91376 -13.0588 -5.51857 -4.64694 -15.9144 1.17104 -14.8206 0.704887 -10.3733 
-13.2992 -3.58275 1.05205 3.23824 -1.86498 -20.8851 -3.22798 -4.00401 -19.6562 
4.88886 2.95138 -34.7895 -10.1313 1.42252 1.90886 4.36211 -1.59515 -0.95304 
-3.2285 6.18501 4.0506 3.23253 2.95212 1.35956 5.57001 1.13895 2.45344 
2.44962 -13.4925 -31.2494 -6.48337 -7.1538 1.23028 -3.32729 5.57299 -0.372632 
-34.7751 7.93529 2.33011 7.53383 8.45426 -14.0843 -11.3566 -14.8807 -12.2349 
-17.6951 8.07264 7.22148 -1.88964 4.17965 1.09022 -2.08568 4.25346 3.51093 
4.65491 1.24888 2.05174 -8.13694 -17.9873 -11.6613 -15.4 -24.7219 -17.7612 
-4.4415 -26.0852 -13.6905 -5.55852 -4.22828 -5.99488 -0.561834 -8.4759 0.404628 
6.67031 4.28201 -28.2055 1.68066 5.78278 -6.89181 -9.28348 -3.94495 -0.0730195 
4.42574 0.197734 3.58787 -1.11205 2.14889 2.22966 2.20557 3.01994 -7.78471 
-10.9285 -0.261084 1.92007 1.38146 1.50126 -3.95178 -1.3535 -10.053 -3.88627 
2.15399 5.58617 1.24255 6.70985 -17.5922 -16.5021 -27.8977 -36.0346 -9.21014 
-1.79297 -10.4988 -16.1672 -29.2916 -23.6759 -5.31433 5.90364 7.60678 6.99531 
-10.5602 -5.0846 -3.04694 -8.19422 -6.27374 -1.12075 -12.7232 0.780523 1.46507 
2.55251 2.89167 2.30662 -18.9736 -8.06006 3.34277 5.4689 2.29339 -7.62004 
-8.1816 -8.26118 -5.80194 -10.2336 -14.6071 -0.284772 6.0935 -0.583348 0.256527 
7.44963 1.62185 -3.07662 1.26723 1.92566 -5.54388 -26.0877 -30.6423 -32.7116 
-27.7195 -1.50962 7.01501 3.3864 -5.95452 6.08039 2.74479 3.96205 -22.0928 
-12.8706 -20.0957 -22.1434 0.413015 7.1137 2.86909 -0.479539 -0.52584 -1.36563 
-0.694966 -9.34936 -10.9865 4.29933 6.38693 2.79157 6.39223 0.642824 1.63416 
-2.6296 6.15466 0.583059 1.53375 -5.08516 -2.5334 -8.04799 -4.46464 -27.3742 
-35.0358 -4.87737 -8.82975 -30.5705 0.445572 -34.4071 -27.2681 -30.0828 -13.1488 
-0.96816 -0.889088 2.76401 -39.3369 -29.9171 -8.57552 -7.37063 -11.8134 -12.215 
-1.92054 -1.07066 0.361228 -1.67072 3.00559 -1.44762 -0.0966952 -1.16768 4.22428 
-26.0764 -26.4329 -0.266636 -4.48317 4.4552 6.7643 7.42214 2.67984 6.70556 
-1.82378 -4.69024 -14.8363 -11.2797 -15.8747 -11.5828 -6.05101 -14.2078 4.00014 
4.05573 2.93926 2.39783 -9.81617 -7.51583 -8.16609 1.0256 -7.26975 -10.232 
-16.9897 -15.3373 -0.149031 -9.8379 -13.2118 1.9881 -33.7747 4.09069 6.20907 
-1.17919 4.50242 -34.2218 -20.4681 -28.9636 -17.8159 -8.75208 -20.6764 0.499619 
-3.81618 -5.98786 -9.51439 -9.58496 7.05647 1.16592 1.88291 5.21274 1.20776 
4.78434 -24.7993 -3.33596 3.30154 -42.3521 -19.1714 -32.2209 -17.5794 -1.49134 
-0.329233 2.31337 -41.3099 -13.7692 -13.0805 -24.2594 -5.59493 -3.95718 -4.07035 
-5.87409 -6.38514 -8.16831 -5.13493 -23.4462 -1.04928 5.92682 3.07982 3.46056 
-7.98237 -8.60275 -9.07916 -9.23819 -16.3091 -7.97084 -3.453 -6.9188 -28.2841 
-31.34 -34.7458 6.00527 7.4746 8.10802 -7.25888 -4.69254 -8.06496 -13.2258 
-8.69785 -9.07742 -10.0238 -6.92069 -8.80613 -5.04575 -15.7564 -2.17058 -2.82682 
-15.5835 -13.4228 -9.06094 -8.14639 -0.830149 -19.776 7.4507 8.285 1.80546 
3.43702 6.00186 -17.5401 -14.8356 8.41759 4.58619 6.2364 5.19234 8.12287 
6.86688 -4.24772 -9.54904 -2.72942 -38.6235 -27.3716 -22.7013 -15.0987 -8.13352 
4.5446 -6.56621 -6.42354 -7.69424 -6.00088 2.61166 1.73777 0.892273 3.42643 
-8.07713 -8.47158 2.03235 2.058 -1.42536 4.83858 3.70824 -2.54117 1.12147 
5.63477 -16.1524 -19.9722 -4.07109 -3.81761 2.82945 6.56132 2.00692 -28.3629 
-27.591 -11.4401 -14.2543 -17.4198 -15.2409 -31.6392 -17.7236 -14.1974 -8.69625 
-12.9659 -20.9398 -9.19131 -18.8745 -5.63204 7.70256 7.26449 4.27544 -0.356249 
-0.391385 2.332 2.23801 6.95211 -5.70711 -7.88757 0.708718 7.40272 8.22073 
4.24947 3.03785 2.06223 4.32634 -3.09026 -3.75744 -8.30125 -3.78371 -1.39043 
6.94777 -6.60598 2.2388 -6.10014 4.03103 -14.4138 -7.85608 -10.2791 -3.99111 
-6.51259 -13.1069 -11.151 -21.086 -3.90044 4.89016 1.3655 1.28526 1.14516 
-0.8002 -1.76854 -0.363401 -23.7283 -28.5015 -4.57624 -18.0126 -11.7323 -19.4118 
-3.51472 6.95217 0.904875 4.21873 -7.9588 -8.03679 -0.233403 -7.35173 -6.65566 
-8.27352 -1.55717 -4.97152 -2.10272 -17.6632 -25.7701 -25.2001 0.49535 3.59981 
-0.17103 5.68116 1.13094 8.46918 7.42516 4.02481 -6.18999 -7.84664 -41.1954 
-41.5021 -39.5006 -40.7088 -6.49777 -6.54559 -8.4661 -3.69035 -3.97237 -2.05871 
-9.4766 -8.5819 1.80313 0.858118 1.09388 0.937402 -0.989654 7.75397 1.59367 
4.34916 -41.3901 -18.597 -1.28077 0.0831956 5.69961 3.15886 -3.46634 4.94224 
4.52964 2.30537 3.93168 -16.3662 -16.2816 -13.5424 -17.1093 -22.698 -5.02549 
-1.79988 -1.62013 -0.505464 0.769478 5.28301 2.6241 -41.8705 -33.1424 -41.246 
-25.3289 -8.82533 -19.2323 -1.58222 3.71813 1.54117 -4.93323 -5.27689 -7.65139 
-1.15403 7.87728 -4.04266 1.15615 -3.13562 -1.71076 -19.0159 -6.34481 4.05999 
1.62257 5.58348 6.35319 4.20483 3.35672 3.05762 1.41378 0.441654 -10.022 
-5.38912 -7.70134 -9.74888 -21.7022 -36.7526 0.432149 3.3774 1.30271 2.05276 
-0.991231 -7.50799 -0.29265 -5.99155 2.22908 6.54252 2.17812 4.92494 1.50539 
2.08359 1.3468 0.75864 1.77604 -3.45132 8.33396 8.24093 7.01144 -19.4726 
-17.8628 -31.0397 -28.4111 -3.01825 -4.89674 -10.5802 -17.2421 -26.0683 -22.7152 
0.00148945 0.791138 -0.718159 1.40349 -0.333548 0.727599 -2.21677 -1.26944 -1.08794 
-13.7854 -0.554641 -0.42872 -3.62793 -1.10828 -0.263669 -0.652731 -0.728829 -24.2235 
-30.0504 -30.6931 -8.34246 4.07464 4.66585 3.83374 2.46432 2.90698 5.06235 
-0.208602 -9.60928 -5.30182 -7.42369 1.80767 1.40297 4.46935 2.57674 -9.66371 
-15.4533 -29.6104 -18.5137 4.72428 4.84097 1.80736 1.55277 -2.42622 1.97944 
7.59333 2.56543 7.68727 7.41226 6.73103 -5.97533 -11.443 -15.9043 1.61877 
1.77068 -2.09483 5.90186 -7.39227 -10.8848 -5.2745 2.5107 3.65529 -0.983572 
-28.6953 -32.8208 -32.4686 -0.206933 -7.82267 -8.08717 -8.02347 1.36228 3.46776 
-13.2709 -5.99147 -13.5723 -8.39947 -7.96277 -2.84639 1.32212 0.746746 -1.62484 
5.75885 -34.2321 2.11016 2.01048 3.17765 -28.1328 -15.083 -25.2418 -12.7973 
-19.5651 7.45482 6.84461 7.48173 0.337696 2.44624 0.270688 3.11156 2.76128 
-1.06028 -8.54612 -0.208106 1.54551 1.76556 1.19089 0.638175 -42.4771 -31.1898 
-23.9655 -8.63004 -4.77992 -16.6881 -28.3224 -23.867 -23.3621 -24.3119 2.26489 
2.80564 1.58039 6.19103 6.20592 5.16582 5.95229 0.286356 -4.8302 -7.99526 
-7.93946 -3.90002 -9.09061 -8.51792 -6.01523 -18.7287 -36.0779 -25.3649 1.75066 
-3.53144 -3.43278 0.472969 -1.34039 -0.371325 4.18743 6.00182 -8.14636 -5.3892 
-3.03692 -4.08259 -1.7676 -5.03374 4.7223 -7.52534 -11.5143 3.14671 -33.6624 
-3.57404 -31.7062 -1.38941 -4.89489 -0.720253 -4.10085 7.25052 -31.0854 -38.7353 
7.61528 7.40518 6.53313 2.56129 4.30952 6.33133 4.046 3.34376 -7.586 
5.29797 1.87405 -1.46781 -5.63326 1.16753 -4.47317 6.49506 2.44255 2.37421 
-11.8883 -31.5841 -31.4053 -27.317 -28.2489 -2.44728 5.53751 5.14447 4.03802 
-26.4232 -24.6809 -11.0496 -11.4182 -26.5351 -2.53837 -2.60021 -1.03524 -2.18631 
2.32855 0.927568 4.68025 -3.01799 -1.10537 0.365564 -8.43607 -5.96332 -5.58769 
0.655033 3.59532 0.629748 2.32279 4.61079 -8.05705 -12.2205 4.21795 5.33616 
-0.100186 1.13555 7.46687 2.31597 1.51599 -7.98132 3.57859 0.11175 1.00362 
-15.6546 -7.96714 7.49167 -2.37775 -4.1987 2.94317 5.8764 7.04373 7.42591 
8.19164 -2.69069 -2.10509 0.510479 0.369758 3.06812 2.42843 -3.37431 -0.614359 
5.38951 7.08953 -34.086 -15.2502 -19.5782 -12.9934 -11.9074 -15.0298 -7.19183 
-12.7781 -8.71811 -12.2806 -10.4587 8.06229 6.22887 -4.21806 7.33243 -0.740549 
-1.09772 -36.3862 -26.5472 -39.3958 -30.4763 -40.2367 -30.1344 -9.59905 -10.3664 
1.86827 4.03226 -5.54765 4.71837 3.30616 2.16366 1.95823 -2.2721 -0.128608 
0.44606 -1.00201 -6.87971 -1.88157 -9.20433 -12.3229 -12.2144 -8.61975 -3.66141 
-7.50758 -1.63235 -2.73841 -30.4279 -21.9917 -21.4772 -34.8598 -29.2662 -30.5413 
1.86375 3.12704 1.8169 5.09981 6.9996 5.66343 5.23736 5.35463 -1.53676 
-24.9089 -18.833 -14.9516 -9.16217 -8.59102 -10.685 1.38635 -3.03875 -17.7409 
7.55617 -11.3517 2.80619 2.59873 6.66844 -3.61396 -19.591 -22.2128 -29.648 
-19.862 2.27845 1.34252 2.4777 1.18399 2.18475 1.89585 2.39454 -29.209 
-1.01488 -17.034 -31.566 -1.00142 -1.31358 -23.4042 -20.0192 -20.1893 -18.2599 
8.24131 8.33018 7.56885 7.18576 -32.701 2.87793 1.34556 -8.70856 -8.3393 
-19.63 -23.2509 -28.4357 -8.56805 -3.71305 -5.56414 6.74444 7.36761 -17.9352 
6.2913 -33.1688 -30.8562 -11.805 7.69898 8.34752 7.62681 -44.0117 -1.01583 
-14.2591 -13.083 -1.4679 -0.142075 8.17177 7.41448 6.61758 -5.9276 -4.90039 
-4.65458 -5.82794 8.04226 8.23154 8.03662 7.31092 5.76743 -14.5621 -8.72258 
-11.6155 1.5569 -4.44247 -4.38726 -5.59082 -5.84423 -13.1261 -4.3854 -14.1491 
4.23597 3.7628 1.18006 1.10971 -7.65512 8.27913 8.2962 -1.3055 -0.074057 
3.08732 2.29588 1.74085 2.46535 1.67122 -5.50275 -4.13528 -4.46646 -4.53315 
-19.7853 0.00810979 4.9329 -3.25959 -5.10852 -5.48136 5.37681 -48.7958 2.27923 
-46.7175 -22.4882 -25.1533 -36.4464 -8.01775 -9.00309 -8.61665 -9.37396 0.775416 
-27.4364 -16.6203 -18.0745 -30.8651 0.552055 5.67053 -2.56721 -30.6987 -6.71581 
-30.1538 -6.86304 -8.28098 -7.86239 -8.35889 -7.64692 -14.5607 2.82341 1.68766 
-2.11336 -1.19584 -1.56943 -2.09627 -2.6582 -0.720227 -1.27209 -0.927897 -6.51042 
-3.42544 -7.96023 -3.5367 -27.7101 -9.25068 -7.59919 -8.17431 2.35309 3.36632 
2.78967 7.43266 -16.4963 -14.7371 -11.5994 0.408048 -0.103358 2.34873 5.34867 
8.15402 7.35258 0.900132 3.80775 4.72557 3.56565 0.598367 0.634022 6.82763 
6.09283 -6.36166 -7.29669 7.2496 4.41012 6.48398 -25.1692 2.96936 -17.9117 
-36.2494 -8.17201 -27.6551 -24.0907 -34.0143 -24.1368 -33.2889 1.65279 1.02346 
7.32249 5.55415 1.85552 6.02268 -3.93435 -0.382868 0.453751 2.45009 4.96095 
7.48547 4.79874 -23.2159 -1.78285 -0.875269 -16.9189 -2.09365 -7.23285 -6.60147 
-5.91325 -1.89646 -9.16495 2.49027 1.1882 3.52062 1.8791 -30.6201 1.06197 
3.011 1.14737 0.780648 -0.717232 -1.24922 -2.13496 -3.21042 -2.78307 -5.74709 
-8.7646 -12.6861 -2.0672 -3.58965 -7.3649 -1.14272 -1.58766 -16.5533 -19.4961 
-1.73872 -8.75001 -18.3131 -26.8204 -15.7373 -20.9046 -14.634 1.41865 1.23611 
1.9248 6.99069 7.09759 -9.64062 -16.3229 1.17409 5.00651 7.78302 7.23997 
7.18162 6.02826 8.26984 0.338567 -0.713282 -1.51844 -0.147655 -9.23589 1.31002 
-4.03078 -0.128502 -37.5427 -9.09866 -34.3798 -42.259 -42.0733 -42.4702 -34.1809 
-12.5591 -5.30092 -15.8662 -14.94 -36.3467 -12.843 -7.22924 -12.377 -9.46758 
8.46344 -0.455834 7.7213 8.28735 5.76458 1.04092 -1.31976 4.77844 0.986756 
0.52827 7.72578 -0.418474 4.87721 -25.0002 -27.8669 -17.8131 -35.6038 -18.645 
-3.01529 1.02774 -3.55938 -0.895336 -0.863661 -1.278 -1.21113 -1.27427 2.76988 
3.08951 2.39737 2.49163 2.80597 -3.75613 -3.94138 -4.29561 -2.92555 6.97575 
-2.88766 -1.15602 -4.07458 -7.92401 -1.80929 -0.0507062 -0.390183 0.790887 -0.106412 
0.917829 -4.40047 -0.111151 -5.4719 1.5817 2.74665 3.35053 -16.7093 -10.4133 
-44.4112 -34.6293 -31.8173 -46.7604 -24.3706 -36.7309 -30.1158 -26.9708 -1.12759 
-9.72691 -18.059 -20.8601 -2.0629 -9.16411 -6.64518 -13.0349 -12.7168 7.58234 
6.95287 -3.26415 -15.2614 -25.9867 -39.8805 -27.2667 -1.09869 1.08294 -1.06378 
-16.1357 -12.1118 -9.26587 -10.5569 -4.55783 -6.0249 3.53272 6.85088 6.50915 
2.51459 -0.762666 2.20066 -26.9181 -0.157072 -9.24433 -4.539 -0.516403 -1.19126 
-30.445 -7.82027 -22.9197 -18.8589 -8.23948 -6.71469 -14.9516 -1.04762 -0.378072 
-14.4054 -10.5394 -5.09713 -1.18417 -34.3479 -27.3395 -5.94145 -11.7655 -7.00574 
-5.14705 -12.3276 0.990972 6.09542 2.76781 2.87166 -11.7184 -10.6402 -0.0841106 
-11.3149 -1.53699 -0.766452 1.73245 -0.573713 0.129732 2.34147 4.56493 -7.16603 
-7.49481 -37.8307 -37.9664 -26.782 -3.00967 2.04267 1.85643 7.15056 8.36162 
7.4451 -22.6852 7.06749 2.04684 4.62334 2.50997 -1.59386 2.81223 3.53499 
-34.023 3.88793 7.87704 7.66468 6.48264 8.02706 6.14059 -0.914607 -1.19284 
-1.21795 -1.18321 2.20775 -2.45328 -10.3991 -14.2835 -7.69119 2.77642 2.37655 
2.18911 1.65541 1.88434 2.31913 2.58088 1.38652 0.794756 -0.026328 -0.228948 
-1.7565 -1.5009 -14.8586 -15.6531 -19.649 -15.3278 -5.55414 -7.93533 -4.5015 
-2.66422 -1.91698 -1.86963 -5.59338 2.2049 -7.6625 6.99637 -12.3055 -13.6778 
6.0931 5.44557 6.71057 -4.77216 -5.70401 -5.21597 -4.69312 -5.07712 -32.3246 
-19.9687 -18.7218 -4.88396 -2.35288 -0.286428 -0.475383 -5.65748 -7.8575 -7.64482 
-2.02641 3.48774 4.16543 2.97353 2.31649 2.7329 -4.34687 -3.40894 -0.134531 
-0.852348 -28.7099 -46.1154 -43.7817 -21.4262 -22.3954 -12.0273 -17.164 -19.9607 
-7.76165 -8.16774 -8.01608 -8.34527 -7.22296 -4.27332 -2.63745 -2.57269 -2.36968 
-34.9818 -37.1999 -39.7942 -41.2828 -20.1587 -35.4596 5.72001 5.26647 -4.67668 
-16.7008 0.454825 -0.694853 -2.23576 -1.74211 -37.3778 -23.5203 -44.7642 -6.84549 
-31.251 -40.4292 -37.9528 -40.0198 -11.6352 -31.919 8.15395 -4.18717 -10.9643 
-3.68671 -8.19231 -9.95374 -1.31317 -4.75143 -4.0854 -0.811211 -0.593701 -1.69264 
5.62481 5.63611 -10.6634 -19.0412 -1.09674 -1.3034 -0.822146 -0.678344 -1.08523 
2.82154 2.50527 2.17943 1.46346 2.59 -1.19617 -9.71871 -23.0188 -4.90953 
4.61773 -1.90792 -7.59908 -6.8707 -7.6942 0.552927 5.02783 -42.2546 -38.6527 
3.27698 7.43702 -7.08901 -28.405 -34.7983 -34.5407 7.04972 0.598337 0.309619 
8.61636 6.7915 4.79761 4.73633 7.57249 7.28873 -7.0397 -7.95845 -33.0224 
-17.0845 1.41831 -2.71022 -1.22456 6.45223 4.71507 -4.74921 5.94869 5.74808 
3.95307 -1.95364 -21.8714 -27.9322 -20.5509 -20.4837 -4.59434 -9.02759 -8.04519 
-31.8055 -37.4045 -37.2447 -27.4655 3.78719 2.24652 0.0194329 -26.3714 -4.17097 
-10.4377 4.63482 -7.85672 -7.70428 -7.93682 -7.89199 -7.73419 -7.11179 -7.37782 
-8.68722 -2.47111 -30.4395 -28.0815 -25.1388 -3.66712 -0.125098 -8.48869 -31.1576 
2.03763 -45.4651 -8.06972 -8.04245 -8.50349 -8.36711 -3.76919 -3.46931 -7.17916 
-27.717 2.60521 -19.7422 -18.3224 -23.8738 -21.3934 -14.4327 -3.4009 5.45644 
6.61299 5.27391 2.20068 3.83336 2.06234 -0.780818 -0.144921 0.826678 1.1142 
-2.92191 -1.08214 -1.87954 -2.65277 -2.73461 -2.16798 -3.40941 1.1821 -4.03125 
-11.9824 3.72869 4.72006 2.89095 2.09901 3.84518 1.29742 2.50015 1.87406 
1.70308 6.80656 1.97477 -4.07595 -2.611 -3.60129 -32.1679 -32.3793 -29.075 
-27.6078 -28.3831 -19.525 3.61226 -15.2286 1.6563 -25.1881 7.20739 7.81541 
7.22371 8.04381 7.24435 7.7117 -5.66201 0.591445 -8.33427 -26.3743 -12.1057 
7.27137 -25.8847 -20.9312 7.59852 7.36305 7.8697 7.68748 -7.16266 -18.2349 
-8.31401 -15.5665 -21.0681 2.99799 1.67237 1.80882 -1.07541 7.68659 7.56802 
6.97582 -4.25199 -8.57197 0.260238 0.985332 -1.12319 -0.631386 -32.5231 -18.3443 
-27.428 -17.1762 4.50399 -1.4437 -0.804787 4.2878 4.61397 2.98416 -0.812167 
-15.1574 -8.17121 -26.7947 -1.40702 -3.85742 -0.54526 -5.20185 1.59181 -27.805 
-34.9132 -5.2694 -7.97729 2.45821 -0.0558652 -1.24784 1.36483 0.635298 6.66027 
5.91483 6.79917 -11.3722 -2.2751 -2.77954 -13.7908 -29.8677 -14.6988 -13.6689 
-24.9185 -6.81262 -7.61167 -7.82973 -15.5634 -8.27731 -5.0616 4.31024 4.68929 
-1.14425 0.205917 2.13567 -6.03856 2.34011 -16.4746 0.740215 7.67703 8.06641 
8.17667 -11.7891 -2.02105 3.56011 -7.82559 -7.70135 -0.361012 4.71509 7.56819 
7.09785 -17.461 -36.7614 -20.6402 -41.8259 4.46418 0.087511 4.8194 -3.75875 
-7.57837 -2.5265 -3.96827 5.81405 7.02548 6.21818 6.66845 7.35056 -1.10535 
-2.09334 -1.41318 -0.878742 7.50489 -0.514798 7.58339 3.91904 -24.6609 -0.22973 
-7.03781 -7.37131 2.01243 2.99712 -3.92118 -15.5445 -1.47461 3.91456 -1.96542 
-0.834377 -0.842335 -0.466798 -1.05445 -6.62552 -18.9461 -7.50055 -22.9489 -18.185 
-1.22555 -7.60559 2.30947 -8.4947 -8.14274 -8.1391 -4.41731 -2.50014 2.37495 
-1.38498 1.53201 4.55107 7.91624 7.98807 4.81051 7.48378 7.16775 -9.26371 
-13.7981 -27.6432 -40.1031 -28.1441 -0.121721 -33.2486 -19.0064 -4.56032 2.86416 
1.97568 -5.69727 -1.78363 4.64347 0.405021 -4.96924 -46.2774 -38.8711 1.70918 
1.70593 0.580427 3.25453 2.37984 -2.53438 -8.09243 -3.37532 -4.90709 0.00365306 
-2.71611 -2.15404 -2.79749 -2.67067 0.479437 -3.61642 -0.889207 0.797509 5.1103 
5.76801 3.63831 -18.9387 -16.8061 -29.1203 -2.89764 5.27388 2.71 2.3054 
3.77828 -2.36352 3.31993 2.75505 2.022 -2.10734 -6.22678 -7.85652 -9.04995 
-7.19112 1.93113 7.66706 3.64419 -9.23899 4.03439 0.437881 0.615629 0.753036 
4.00654 -11.5326 2.35717 -0.018791 -38.8649 -6.53914 -29.3681 -15.6294 -7.86666 
-7.01143 -7.18698 -39.5859 -15.115 -5.29574 5.49835 -4.6839 5.18104 0.835535 
-1.00543 -0.776712 7.36476 5.10132 1.96401 -1.11946 -0.901454 2.42214 -20.3268 
-14.9757 -34.0452 -24.9761 -39.0159 -37.4427 -36.4772 0.958931 0.0993075 7.0922 
4.96099 6.67446 -0.567572 5.8999 -3.53053 -23.2185 -12.9731 -6.77394 -7.55772 
-18.6293 -14.1605 -14.4542 -10.7576 3.55023 -7.35874 3.11502 2.87786 5.80344 
-5.13965 -2.44026 -1.07733 -0.719049 -1.91273 -1.98626 0.0543391 2.6524 0.786638 
7.11675 -5.60341 0.393418 -6.69173 -5.43586 -7.53139 -7.93332 -6.44618 -7.19478 
-7.70555 3.11675 -0.031261 3.90363 2.33246 -6.11903 -0.785283 7.32132 4.97162 
6.5638 -3.09021 -27.5666 -14.7953 0.692111 0.605112 6.35646 2.95132 1.57824 
5.04214 -5.17617 -6.44682 -7.90237 -8.85627 -26.8948 2.19459 -10.5268 -0.223056 
4.80052 7.09014 2.46724 0.719828 -0.279197 -4.82449 -30.5312 -16.8123 -8.89116 
-7.76035 -7.76925 -7.75068 -7.89561 -7.69443 -28.8805 -46.4572 -48.9001 -0.599097 
2.06726 -21.0881 -8.02235 -20.3 2.05901 -5.97584 -4.79343 1.02286 2.44582 
0.819732 2.47894 2.34815 2.03951 2.05213 2.12162 -11.0079 -27.4412 -32.4798 
-24.3829 -17.2124 -33.2555 2.66214 2.59625 2.17674 -2.52771 5.22548 -11.7911 
-26.0482 -20.5613 -8.79625 -27.2507 -28.3705 -20.4827 -11.1292 -7.77159 -16.7954 
-14.0096 -2.32148 -2.1061 -8.74356 -4.25688 -2.60673 -2.97407 -37.3423 -36.6306 
-34.7022 -18.9866 -20.0993 -15.2133 2.82441 -2.81946 1.2069 2.94814 -37.2699 
-34.1152 -30.8494 -8.62177 -8.0907 -14.7799 -8.37419 -0.967704 0.541545 -3.8613 
-3.32067 6.23374 4.83895 -7.6412 -7.02058 -7.14418 -0.500124 1.84527 -0.0817621 
5.52254 3.87836 -38.8373 -40.2576 -33.311 -14.3814 1.15733 3.72609 3.8588 
-1.33891 -1.50364 -1.9124 -25.7567 -46.3021 -7.5381 -23.0299 -3.70589 -6.42302 
5.3841 -2.84351 -4.00863 -6.4521 2.54648 1.11291 5.36178 0.0612519 0.908129 
-1.1342 -7.77483 -19.8317 -7.99643 -8.66675 3.82493 -2.87268 2.60532 2.50804 
-2.55073 -2.68184 -0.350146 0.281139 1.27878 0.470112 -0.304688 4.01328 5.84121 
4.80431 0.922428 3.40015 2.80226 2.99357 1.91405 -8.7261 -6.73226 -7.13227 
-33.4608 -8.33539 -7.72903 -6.20276 -0.375758 -0.49303 4.4099 0.406871 -2.94102 
-0.930574 3.67078 4.82727 -1.32628 5.7221 3.05106 -0.699349 -22.6465 7.86131 
6.89312 7.26327 7.32801 7.87397 -6.87485 1.34636 -1.56084 -6.09592 -8.31066 
5.21608 4.78471 -10.8903 -4.08324 -7.24795 -10.0774 2.22716 3.06709 5.78378 
2.65448 -8.21206 -7.81966 -7.6894 -8.01091 4.3754 5.07425 -4.2234 -2.03557 
1.75282 7.04167 0.42757 -8.43917 -7.59517 -7.93877 -8.0331 -34.0773 -25.5087 
-26.3416 -31.9949 -22.6592 -30.3411 -32.9122 -33.4465 -16.0515 -5.83948 -6.44387 
-17.2269 -7.77482 -18.5726 1.4206 -11.6076 -7.25591 -0.389603 -2.29668 -2.88544 
1.4382 7.54645 2.48929 -3.53667 -2.31724 0.300583 -0.57545 -1.4358 3.58099 
1.04873 4.92366 -24.1601 -25.4392 -40.1802 2.00682 -0.0226948 0.728593 -1.58744 
-2.4278 -5.96676 -24.8106 -3.94847 -11.4724 -5.85144 -3.9933 0.17919 -1.99537 
-1.47651 -1.39204 -2.26738 6.95291 5.62916 7.51342 -14.9744 -36.4496 -46.5177 
-37.5255 -47.4541 -2.58617 -4.20927 -3.80146 5.17479 -18.5123 -0.885406 3.21666 
4.28132 -17.0149 -0.313251 -1.0393 -1.58365 4.60174 0.149227 2.91571 -19.4269 
-5.767 -7.35142 -13.334 -2.78155 -19.6839 -13.7871 -4.4633 -6.92796 -16.7188 
-7.64505 -11.6936 -10.2877 -3.59069 -3.24728 -1.72873 -1.48894 -4.16477 2.675 
4.69028 -15.5558 -13.4626 1.04899 -0.594305 2.71178 -4.08601 -2.20443 -4.25063 
-3.41254 -20.9562 -24.034 -36.359 -41.7644 -2.55752 -7.76172 -9.90394 -8.07374 
-7.98259 -8.1131 -3.72125 -4.34959 -4.16911 -3.77673 -3.97272 -1.32396 -1.46985 
2.33138 2.38863 -28.2487 -17.529 -25.4464 6.21088 6.29357 1.80859 -4.02455 
-11.0951 -0.803449 6.40102 0.496946 -0.798871 0.865597 4.05308 2.68428 5.11578 
6.53872 -0.0006001 -33.063 -10.5729 7.41335 0.331893 -1.53867 -0.136499 5.49592 
-1.65708 1.92884 1.08077 -24.2872 -33.5956 -17.1359 -22.8259 -29.957 -18.7096 
-7.71886 -13.2936 -14.9489 -26.8354 -18.5581 -13.8373 -16.838 -2.77798 -5.59694 
-17.6556 -15.5927 0.705511 -15.4807 -7.21925 -30.291 -6.96098 -15.99 -23.1007 
-18.0152 -6.89415 -20.2267 0.621343 5.9225 -0.354288 4.19399 -8.09567 -7.51002 
-7.99391 -3.4622 -12.0609 -4.36718 -5.27738 -3.82515 -1.57705 -2.551 -1.71929 
-2.2371 -0.328737 -1.10545 -8.05571 -8.02481 -2.46051 2.35238 1.7913 2.92123 
2.1438 2.28275 1.94664 -26.5695 -10.8078 -17.9507 -10.8354 -23.3206 -18.3896 
-21.8581 -18.0404 -16.6898 -18.8974 -2.54895 -0.409791 1.6186 5.27434 3.40344 
4.45901 7.75009 5.68341 4.29784 2.61907 2.47723 1.79352 1.775 1.57135 
2.75458 -33.1286 -21.2843 -29.1164 -34.9044 0.0232766 -2.07375 6.47716 -0.0654908 
-7.93664 -2.75924 -3.42569 1.24664 -0.537432 1.13395 0.563532 3.82531 5.09231 
-0.664472 6.5385 -17.1955 -24.6843 0.908257 5.53658 5.60266 -2.00316 -12.3462 
-8.42959 -8.42301 -6.52524 -8.67667 4.20168 3.06111 6.51876 6.33808 -2.55869 
-2.24939 -5.15538 -1.46191 4.72779 -1.03636 2.50159 2.67832 2.45411 2.39682 
2.12525 2.42292 5.71578 6.85369 -0.694667 0.643617 1.85365 -0.102386 -2.11603 
2.17121 2.86873 -8.39491 1.20922 3.98085 5.64308 7.59445 -1.97252 3.51427 
-2.03938 -30.1828 -38.7942 -38.4811 5.66638 3.56828 -0.949322 5.06748 4.76405 
2.21328 4.64979 -4.46543 -2.01818 -2.32897 -27.5885 -29.9319 -35.1617 -6.71518 
-5.48537 -3.02244 -1.09544 -10.47 4.52814 1.97039 -1.57045 -23.7564 -19.9217 
0.462871 -1.03719 -0.912402 -0.307467 -0.51648 -3.78481 -5.06604 2.12816 2.95861 
1.4224 -10.5803 5.95239 -41.5336 -39.6581 -35.2754 5.68525 4.9539 0.642079 
-2.06635 5.33004 -3.38437 4.02145 -14.0838 -10.0315 -0.000826619 0.123145 -1.52987 
-3.74187 0.5315 -2.10387 -1.3258 -7.21286 -17.5775 1.98705 0.622682 0.932399 
2.08809 1.72044 1.59627 2.32056 7.07216 0.315396 0.359346 -7.91586 1.85526 
-27.3367 -17.7138 -41.0125 5.52704 3.74354 -9.5344 2.51642 0.661185 -1.81672 
-1.25693 -12.049 -21.6365 0.0603231 -26.885 -18.774 -12.1343 -19.2488 -14.9261 
-20.4488 -2.81358 -4.18609 -7.50568 -11.7163 -9.13095 -3.41288 -5.99251 1.10765 
-2.92421 6.47789 7.04793 -9.88194 -1.22443 -6.34174 0.35546 1.00667 0.910614 
-0.0168558 2.17999 -7.08628 -7.63945 -2.74248 -1.92097 -2.46381 -9.53608 -7.20923 
-3.87397 -7.30759 7.63227 6.55388 7.39548 -10.5191 -14.2909 -9.01824 -16.014 
-12.7677 -9.7659 -7.36943 -8.37534 -10.0379 -9.89314 -8.43698 -1.10368 0.461953 
0.180589 0.262912 -8.24539 -9.70756 -11.0465 -3.9642 0.900128 -0.466056 -3.33308 
5.32406 4.26528 -9.29915 -6.6219 -7.08069 -3.65467 -24.8592 0.810653 -3.91021 
1.10293 2.24813 4.84077 8.46549 2.91461 -1.38687 -1.52886 -0.528791 -0.46314 
-26.5476 -17.4948 -22.4836 -27.6161 -35.2995 -11.5032 1.42098 4.10267 2.6515 
2.17966 -7.87532 -5.86406 -6.37816 -6.47914 -3.70185 -4.23813 -4.80969 0.979676 
-0.492027 -4.0058 2.02696 2.48682 -0.723644 -44.2973 -1.07075 -14.0055 0.411213 
-0.310284 -1.27674 0.990341 5.96909 2.45549 2.62508 2.1765 7.55529 7.98138 
7.87249 -2.45452 -0.747161 -0.633725 2.15653 -0.543112 -1.19985 -0.698288 -11.9849 
-0.778965 -0.347993 -3.07049 -1.17697 -4.17871 -15.2109 -7.36528 -7.69409 -11.9174 
-27.8801 -14.3525 5.26272 2.02299 6.27329 -7.5986 -1.04491 -2.24519 -1.61524 
-37.9563 -41.8174 -37.8911 -32.637 -34.1759 7.47718 7.00344 8.1818 3.53198 
-2.12766 -3.7731 5.54088 -1.11926 -5.1167 -4.26371 -7.45854 -1.46375 -7.26024 
-0.941494 -1.30484 -5.11003 -10.9334 -9.06378 -12.5049 -4.55856 0.871655 0.718515 
-3.0277 3.68559 0.908311 -3.81342 -1.27548 -0.0899536 -2.70178 0.388701 -6.07238 
-6.98128 -8.81621 -5.01102 -4.15053 -0.580475 -6.78648 -0.797956 -0.640878 1.28666 
4.31921 -0.762292 -25.9497 -9.13791 -11.121 -16.0037 -15.9659 -8.00894 -7.89511 
-7.95439 -8.13003 5.95677 -9.76324 -2.53245 -1.86769 1.38484 -0.93062 -1.52895 
-1.33333 -1.74544 0.645789 0.861169 1.0477 0.964514 -0.3536 -12.988 -2.9579 
-7.82924 -8.20678 7.7823 -11.7426 -15.1167 -3.59714 -3.32666 -28.5347 -12.9169 
-21.9186 -4.13018 -27.0626 2.2929 -2.946 6.94968 8.37266 -6.54272 -11.2719 
-18.352 -6.54514 8.37455 5.96277 7.83869 7.79972 -2.67699 -14.909 -3.71123 
-17.6595 -0.315001 -3.78098 -2.46043 -4.79498 -6.04361 -29.6659 -23.7511 -40.4 
-6.58345 -34.9621 -7.93792 -1.71745 -20.2855 -21.8986 -3.8697 -1.72381 -8.21601 
-7.35288 -7.24494 -5.03269 0.100978 -4.00277 -2.05356 -5.98179 7.68509 8.3137 
-7.7776 -15.3689 -10.8658 -5.46012 -14.6524 -15.2972 -1.16159 -0.0597473 -0.31334 
0.362308 -0.975359 -6.83594 -7.10374 1.22427 1.0023 4.82428 -4.10825 3.73483 
-3.19195 -6.6553 -13.4888 -11.6067 4.67564 -15.2955 2.28644 -2.25431 -14.1616 
-15.8758 2.08657 0.0446187 3.45011 4.30741 -30.7471 -30.7697 -34.3196 -30.7503 
4.69664 6.70023 -31.4028 -12.1657 0.0895834 -18.9571 -13.6261 -5.49968 -0.765683 
-5.34341 -6.36215 -22.3347 -3.13589 -1.79878 -1.15923 -7.44083 -7.9982 -7.53352 
-7.87081 -8.03176 -4.38024 -7.30811 -7.3526 2.25885 -15.7421 -17.487 -29.3995 
-30.7925 -7.45169 -1.40411 -5.52914 -5.79037 5.19064 6.97581 5.15996 6.15095 
2.3556 -5.55167 0.333923 -7.42091 -3.48903 -0.186747 -8.57351 7.08106 -26.4348 
-31.6399 -33.4237 -32.3984 -34.0743 3.93168 -15.124 1.32163 4.23593 -2.5501 
0.510863 2.89182 6.26329 -18.6525 -2.32602 -5.67689 -14.0398 -16.4306 -11.3244 
-7.37888 -27.2275 -32.1212 -11.0048 -8.27391 -3.86991 -3.12792 -4.2523 -4.70608 
-2.79261 -4.14928 -7.94122 -8.06878 -7.78893 -7.60039 -5.81842 -4.15437 0.0402401 
0.402108 -36.4585 -42.9109 6.48482 2.68248 7.93545 -0.359067 -7.81353 -5.8146 
-6.60326 -11.3553 -3.88314 -7.58885 -0.705713 -9.66384 -1.84234 -18.2462 -7.54481 
1.04895 3.64341 7.36389 2.84889 -30.9126 -15.4933 -29.0135 -20.9316 6.11388 
6.16677 0.476203 -0.726424 -0.567301 -0.143412 -0.220949 -7.71437 -0.558386 -2.68595 
-10.5941 -28.3241 2.12762 -11.2767 -17.4833 -21.6567 -28.9533 -0.656516 -10.2508 
2.26584 5.39617 5.04677 1.569 -4.24939 -0.213748 -22.6698 -16.9982 -20.1314 
-26.3662 7.20052 7.74614 8.25192 7.57706 -6.3382 6.36738 5.23515 -1.56967 
-0.228569 -1.25823 -0.691631 -8.12527 0.860526 -3.81976 -28.5224 -24.5187 4.11297 
-9.03796 -11.6995 -3.00348 7.96014 7.97873 7.6605 -15.6892 -17.0209 2.09648 
1.27233 -15.976 -1.43698 -9.06108 -9.08317 -0.461457 -0.752561 -1.31385 4.24141 
-11.3798 -7.37569 -4.62376 -31.1698 -32.6885 -31.2718 -16.951 7.01685 6.88269 
0.767459 5.31897 2.57969 -28.0313 -24.5577 -11.2869 -19.5448 -13.5986 -26.1481 
-22.1574 -6.93529 -5.75689 -24.1376 -18.791 -26.6229 6.89632 6.28301 6.09268 
-27.6593 -24.0458 -15.2943 -16.9061 -27.2602 -7.9897 -1.53191 -27.1404 -25.2435 
-41.4486 -12.3425 -22.9868 -39.4785 -22.2647 -13.3849 -14.744 -33.7417 -18.501 
-7.0666 -8.598 6.47278 5.49802 8.26234 -2.14214 3.97649 -2.21645 3.45374 
-9.73842 -6.62941 -7.33386 -14.2143 -10.3508 -9.42555 -21.5877 -17.8324 -7.35293 
-11.5537 -5.42594 -9.9501 -0.245962 1.24634 1.26085 3.98791 5.17394 -1.42288 
-2.78315 1.97328 -4.10346 2.45708 -9.92017 -3.79915 -9.54402 -8.04646 -8.2023 
-8.25755 6.71343 -21.5178 -3.27782 -11.0698 -36.6107 -2.93684 -23.6326 -19.4903 
-7.90754 -8.58443 -8.66801 -0.612172 -0.739747 -1.11905 -0.8946 -0.513588 -0.969793 
-0.62109 2.74465 -9.52461 -8.16437 -11.5696 -2.73904 -7.9845 -11.2934 -16.4524 
-11.167 -10.9709 7.91584 7.93606 7.66301 -3.79884 -3.12323 -3.2812 -3.55366 
6.8496 3.9389 -3.59975 -4.98004 -4.63707 -4.10178 -0.90969 -1.1687 4.088 
8.3413 5.18736 6.89202 8.42841 7.85203 6.70405 7.68595 -21.6955 -30.7699 
-35.4538 -37.764 -7.37365 -12.1626 -7.23067 -12.4575 2.91758 -15.0619 -8.84015 
-0.558025 -0.942315 -15.1979 -14.6388 5.18547 6.46409 6.39069 -29.1134 -27.4511 
-21.4897 -17.8144 -8.87463 -16.2449 -5.50951 -17.4737 -5.26835 -5.25914 -6.6628 
-6.95757 -1.66334 -3.13341 -5.52416 -7.97208 -9.05339 -2.50348 -9.06564 -5.88108 
-20.1749 -33.0808 -25.0082 1.97917 4.11649 3.54457 -0.562974 1.91635 2.27616 
0.979155 2.01033 2.24507 -18.1698 -11.5694 -36.9746 -25.5199 2.90727 4.10162 
2.28237 1.46578 -45.1226 -29.448 -35.9044 -12.0341 -25.1575 -6.72983 1.00021 
-1.32727 -12.9515 -8.99548 -8.22714 -11.1418 -5.33155 -6.33693 -6.54261 -2.44336 
-2.10403 -2.46954 -2.78747 -4.39215 1.50694 3.41957 -15.8827 -22.8218 -9.93846 
-31.5787 -6.41652 -14.4704 -14.3733 -13.9275 -9.30535 -17.9113 -4.61985 -6.3375 
-6.91075 -6.61776 -6.33455 -12.1898 -9.54335 -4.56481 -36.6254 3.67339 5.16961 
3.05416 4.47218 7.78245 -5.59941 -4.9652 -1.64893 -2.15996 6.85825 5.18317 
0.0345202 5.03482 -8.14297 -1.11269 -0.610158 -1.54988 -3.22987 -15.786 4.08414 
3.0232 -9.55093 1.90116 6.68234 8.10464 5.83873 1.00039 7.90717 1.75567 
1.62551 2.2374 1.76641 -14.5581 -20.0039 -11.1573 -5.11854 3.31153 -20.8411 
-14.7619 -7.01098 -3.95718 -21.3998 -7.88517 -0.122934 1.5686 5.14091 4.87257 
1.34465 -2.72073 -0.694769 5.21057 4.90667 1.63093 5.61374 -6.19433 -4.0556 
-5.91666 -6.09876 -10.5426 1.60392 -27.1719 1.78275 1.86807 2.02073 -12.1702 
-2.29874 -10.0295 -3.14493 -4.41138 -1.14009 -42.9492 -36.1145 -9.47748 -24.7928 
-8.12483 -26.7958 -6.73943 -28.1561 -25.351 -24.0727 -19.8511 -28.2645 5.8947 
-1.24285 7.9985 6.77342 4.97571 6.56526 7.90753 -3.87558 -1.05991 3.91464 
3.03762 0.242171 4.31469 2.63656 -2.7511 -10.5286 -1.27987 -4.18386 1.44332 
0.955795 1.7678 1.75072 -7.6896 -7.14291 -6.95051 2.09876 8.52134 7.94007 
7.92798 8.23587 8.22775 8.47142 -0.416208 -1.09646 -0.747414 5.07494 0.202945 
8.36064 -3.32443 -1.37188 -20.6066 -0.35622 -11.0188 -28.528 -29.4424 -13.7367 
-5.94202 -4.60707 -4.36865 -5.33104 -5.34192 -5.29937 -14.654 -1.5165 -3.19536 
-4.99692 0.355132 2.05576 2.15083 1.99281 1.55756 2.54864 2.2038 -22.2218 
-2.24012 -35.622 -3.33212 -1.91035 -1.60096 2.00604 0.622553 -6.17069 -11.4337 
-15.5899 -23.4811 -29.4234 -14.9715 7.47293 5.30131 7.11042 4.15816 6.18274 
5.1997 -6.7109 -8.05577 5.32187 3.3805 5.4586 3.92433 1.38258 -10.0285 
-8.04164 -8.41097 -8.04296 -7.14562 -10.2901 -9.89884 -5.48074 -4.32387 -3.1246 
-2.96955 -4.67953 -2.37164 -18.2194 -14.2837 -17.4241 -7.39101 -7.84564 -11.1711 
-1.26999 -1.21433 -0.370163 5.14747 0.364264 0.876558 -37.3803 -41.7078 -10.5677 
-4.26448 -7.78017 -7.64466 -10.0012 7.70055 7.40316 5.16598 7.69869 -9.43936 
-3.13383 -4.86445 -5.28622 7.99207 6.95081 8.18952 8.42037 2.87376 2.05499 
-16.2117 -2.71381 5.60506 -26.3099 -0.543706 0.770426 -2.6505 -15.6403 4.6048 
3.02853 -14.9259 -5.81759 -3.7119 -3.49492 -3.13993 -3.4472 -7.43945 -3.87894 
-2.56328 -0.521961 0.0682451 -4.85716 5.179 6.62957 3.31301 1.33575 2.26222 
2.55507 1.79192 -1.872 -2.73158 -0.84456 -1.93694 -4.56995 -4.8581 -5.25482 
-0.813481 -0.422762 -1.06584 -20.7759 -7.64166 -6.7925 -6.9985 -6.97118 -6.48278 
-8.1062 -25.8987 -4.39093 -8.19532 6.70865 8.19425 4.16457 4.01416 -8.22311 
-4.65502 -0.967094 -0.790691 1.39128 4.25559 2.12217 0.86629 3.37451 4.68528 
-8.50412 -6.70185 -7.43841 0.297865 -0.550027 -18.3549 -25.2341 -8.24205 -5.62799 
-2.29792 -10.7465 -11.3953 4.61814 7.22956 4.90972 3.43307 -7.77819 -12.239 
-14.2319 -6.86371 -7.78351 -9.49462 0.302898 -2.22377 -6.34778 -9.49067 -9.98255 
-30.564 -11.2846 -35.3079 -17.5244 -43.8244 -38.8573 8.52369 8.26591 8.38099 
4.15342 2.96282 2.46269 3.03721 -0.253448 2.33681 7.27622 6.33872 7.82572 
8.44607 8.36499 5.29045 7.28909 2.95486 -27.677 -36.0788 -40.345 -24.4331 
-14.7485 -9.79397 -13.3539 -12.0056 -20.5309 -16.4157 2.13016 -17.2251 -12.7867 
-27.085 -3.201 -17.8664 2.49132 -16.3904 -17.1861 -1.96115 -1.31666 4.2403 
-6.18947 -1.27449 -6.06839 0.299777 -32.4894 -29.236 -25.5153 -9.50203 -27.92 
5.10676 -1.81136 -8.33625 -7.95556 -8.464 -8.18441 -8.19597 -9.78977 -3.49 
8.52254 7.43378 7.73272 7.49222 8.40626 -8.13119 -7.67529 -8.24332 -8.25158 
-7.84782 -0.993587 -0.856933 -1.44963 -3.79579 -0.887558 -3.08903 0.145005 -3.22495 
-2.05421 -3.60714 -1.45882 -5.29284 2.05048 -8.99943 2.11152 -0.2759 -24.0789 
2.05882 -4.02897 -7.09848 -2.13574 -20.2216 -16.7053 -38.5444 -40.8074 4.92224 
2.15434 -3.74751 -12.8114 -15.9242 -15.9479 -3.12496 -3.55231 -3.18422 -0.568038 
-6.40802 -4.18632 -10.4529 -13.3152 -17.3376 -15.0394 -8.41171 -22.9401 -27.3718 
-17.1177 -22.309 -22.8958 7.95024 0.0953775 7.55332 0.0142136 -9.6647 -2.30252 
-38.7423 -17.3682 6.36872 4.75638 4.71176 -5.63133 -1.50306 -9.16437 -9.3046 
-4.1214 -3.10829 -9.02663 -16.2982 -11.4044 -17.632 -19.3956 -19.2003 -25.5245 
2.18171 2.29051 -35.5244 -23.0909 -22.71 -27.3522 -30.136 -18.9435 -2.74005 
-0.80286 -10.1532 4.59343 -12.3327 -13.1833 -15.6198 -1.89331 -3.21026 0.161499 
-2.29795 -3.88082 -1.60102 -3.04048 -3.96484 0.236284 -16.4333 -14.3843 1.12589 
-8.23259 2.6048 -19.6786 -15.2196 -17.1667 -15.501 -16.03 -12.4857 2.75351 
-11.9501 6.69488 8.51355 6.90126 7.82697 -0.843324 0.505821 5.56671 2.92605 
-24.3081 -27.7151 -16.9273 -26.3934 -11.7182 -22.865 -20.6785 -2.13905 -21.8486 
-20.0065 -20.5367 -19.4705 6.35694 3.01919 -0.81136 -0.834665 6.21684 7.45163 
6.74911 -14.9855 6.67858 -3.13012 7.96104 7.42327 -32.1533 -31.1556 -33.9382 
-38.469 -49.4406 -41.6899 -49.0875 -5.68966 -17.7861 -7.48381 -6.99846 -8.69887 
-8.56492 -5.0254 5.78373 7.66721 6.11153 6.66933 -11.5871 -9.92221 -7.16885 
5.38785 5.35921 -27.0874 -23.3823 -4.32904 -36.3358 -24.714 -6.90148 -7.52726 
-6.83097 -6.17375 -6.12312 -8.42392 -7.54636 -5.33827 -8.11537 -5.56381 -14.5001 
5.73255 4.29448 5.11412 5.45942 5.46603 -5.96003 -9.3424 -7.25102 -25.041 
-10.7734 -37.0282 -10.2478 -8.37857 -8.12268 -7.90976 -7.42535 -3.85447 1.41808 
1.413 2.74298 -2.18697 -0.392911 7.56453 8.05965 -9.7661 -0.117253 -3.2917 
-8.81187 -1.42666 -0.471523 -6.07086 -20.7634 -4.04311 -21.5247 -11.6624 -17.1941 
-0.341196 -39.5271 -0.00491276 0.500144 -0.544618 -1.20386 0.970081 -1.50396 -2.87609 
-1.49666 -0.912097 7.44684 6.87371 4.29575 7.06026 2.22549 2.26745 -2.93033 
-6.42853 -2.98928 -2.54624 -3.55191 2.86456 0.597266 -0.411879 -1.27846 -9.51671 
0.286955 -9.48194 -1.58674 -19.7338 -33.6142 -24.6612 -0.42241 5.89208 -49.4394 
-44.6483 1.21488 3.92993 4.91522 1.97362 -25.7257 -42.9835 -22.0841 1.72187 
4.10775 0.700463 2.47693 -0.718977 2.59846 5.82827 6.45284 1.48222 6.1714 
7.86414 -4.04619 7.47179 7.61693 7.64941 7.13833 7.90777 -43.0968 -44.2042 
-46.1422 -36.5058 -41.4588 -4.74129 -8.83801 -4.76717 -1.49542 -7.5387 -32.8618 
-29.9698 -25.9888 -22.1474 -21.7931 -17.7866 -27.1221 -26.3769 -9.97932 -14.5114 
-11.2491 -11.018 -29.868 -5.22692 -2.81763 -6.1799 -2.9355 -4.9128 -0.487914 
-0.847985 -1.59483 0.365838 2.34909 4.49632 -0.735094 -9.05557 -11.5767 1.71013 
-14.2506 -2.31568 -7.49999 -3.56816 -31.9527 -29.5895 -30.1619 -5.18634 -2.6707 
-0.0434511 3.79875 7.0749 0.806975 -0.633343 -0.822109 0.882482 2.22288 2.42025 
-23.8197 -26.2103 -25.0055 -2.0224 -11.1577 -7.02896 -2.14835 -4.46916 6.58624 
7.37488 6.25986 7.62569 7.80538 -39.0634 -37.0202 -32.7184 -21.6467 -32.2223 
-38.2146 -42.9615 2.17848 -2.29511 -14.5699 -4.32983 0.0660005 -13.7056 -20.0584 
-2.86909 1.97057 2.11207 2.08661 1.53359 -35.9916 -34.9854 -26.2808 -20.8616 
-39.4196 -31.47 8.16124 7.72614 2.69965 5.83066 6.97369 -0.285288 0.177374 
-1.5861 -28.0677 -32.0908 -23.7559 -21.3012 -28.9207 -21.086 -28.9327 -21.9305 
-4.49218 -6.93934 3.68879 4.28546 0.857307 -1.85558 1.35362 0.719465 7.62087 
6.98269 -27.7052 -23.766 -26.4251 -34.1245 1.62519 3.33403 0.862306 3.14592 
2.56658 7.95481 2.91398 6.45318 7.92785 5.56047 -23.5123 -11.9894 0.951761 
-27.4876 -27.3509 -6.34385 -19.5481 -19.5025 -20.1795 -8.10651 -17.1214 -17.9437 
-38.6644 4.10062 4.2837 0.139116 6.31009 4.59662 5.61247 2.17522 4.58821 
6.26893 -29.6419 5.42072 1.00817 0.616792 6.33444 -0.976453 6.05516 6.31415 
4.37016 7.70422 5.30244 5.68295 5.28799 2.82444 -1.90721 -18.0139 -10.057 
-17.9832 -7.38809 -16.9484 -23.6366 -25.2642 -0.8238 4.71503 4.33112 4.27105 
4.30129 6.76627 1.5058 1.2854 -11.4475 3.68121 2.1354 3.66241 7.37557 
1.50823 -0.730851 0.120464 2.50162 -0.300288 1.39497 0.391913 1.20544 -19.7883 
-18.5214 -9.17203 -2.74221 -15.2122 2.29954 -12.282 1.09618 -20.1998 -0.128932 
-10.3835 -9.40501 -1.04596 -0.28046 -1.37957 -2.04274 -1.07379 -1.37925 -0.579622 
6.35332 0.0372368 -0.260363 0.967609 -0.676529 -3.58111 0.385353 3.58738 3.64466 
5.65486 6.29813 -1.2517 -5.33086 -5.32608 -1.38888 -2.9441 -1.96796 -1.8578 
-0.740243 0.000514993 -27.4137 -15.0644 -12.1108 -15.0325 -5.93141 -2.30319 -4.16041 
-10.1994 -12.2321 -1.57597 -28.3902 -5.13872 -1.55717 -12.0045 -6.91646 -6.0627 
-3.18044 -5.71896 -7.48567 -7.69762 -5.56019 -6.83679 -5.17917 3.70815 5.78808 
1.8927 6.14251 7.17018 5.79431 6.88181 6.75449 -11.9879 -15.7721 -9.24352 
-6.0257 -12.2974 -16.0917 -14.8131 -13.9816 -12.6583 -14.1209 -6.00911 -11.1088 
-13.8305 -11.5897 -7.81116 -4.42599 -3.83262 -9.12548 -4.1055 -3.61624 -10.1256 
-9.10585 -9.30356 -1.16774 1.48243 -1.40314 -0.537514 -1.05305 -1.1862 -1.0557 
-0.63509 -2.05441 -1.65389 -0.964525 0.171536 -1.47132 0.312631 -1.50082 -2.13836 
-2.36701 -1.24439 2.10296 -1.43344 0.624746 -1.23858 -1.03356 1.84366 -0.00501872 
1.42863 0.985724 0.688103 6.75853 1.9798 -4.05101 -3.2328 -1.49124 -2.06752 
-4.30849 -0.518184 -0.50739 -2.15948 -0.575167 -30.2627 -23.4239 -8.79905 -30.9213 
-36.8554 -40.8856 -25.4815 -12.1505 -26.7984 -12.1137 -7.69774 3.1123 -1.76462 
2.52686 2.79665 0.941305 1.25475 0.440441 1.19978 0.985003 -0.746653 0.114514 
0.389711 6.09125 -34.9098 -32.5466 -31.1535 -6.69943 -8.43073 -7.36196 -7.58424 
-7.32249 5.59362 -0.16478 3.97711 5.18657 5.20281 4.75374 5.81863 5.98737 
-0.660779 2.7792 1.94984 2.05471 1.27536 1.41145 1.05147 -7.75017 2.14942 
-13.1646 -9.53807 -5.43988 -14.2482 -8.4874 -13.1088 -22.0949 -27.4756 -0.61063 
-1.0175 0.712344 -0.582348 -0.536298 -0.750756 -1.00726 -0.308951 0.559868 -14.3415 
-29.2121 -18.5441 -35.1635 -29.3813 -5.01924 -7.73084 -9.22391 2.77426 3.92705 
4.0322 3.60329 1.98227 2.42342 3.79273 1.51781 3.34552 3.07446 -27.1185 
-3.88797 -29.263 -34.1257 -7.98773 -16.8134 -7.58834 -7.41557 -9.14131 -13.727 
-1.33431 0.584358 -2.5982 -2.97605 -0.447221 -19.7188 4.58351 -23.0305 -6.65073 
0.766703 -6.37514 -2.91656 -2.88954 -11.6322 -6.52275 -13.8486 -1.47769 -4.99261 
-8.47016 -7.86417 -8.60802 -8.17244 -8.12525 -2.08639 -1.17476 -3.32246 -0.623233 
-0.652261 -0.143322 -16.0133 -7.70327 -24.9708 -19.0153 -19.3694 -20.9635 -6.75589 
-7.9357 -5.78813 -7.79033 -6.77787 -6.90246 -6.12044 -6.70796 -6.28849 -7.39013 
-5.89312 -7.34829 -6.34854 -7.12671 -7.17267 5.82258 -11.4717 -3.99949 4.66106 
-6.80494 -3.65324 1.5618 -0.617188 0.300869 3.46511 3.5516 5.15372 4.22046 
3.8244 5.50726 0.41236 -8.17489 -4.63916 -4.97115 2.93813 -0.945396 1.27225 
2.61074 -0.907599 3.52842 2.89696 2.34079 -15.2844 -12.4865 -9.67571 -11.6796 
-27.5464 -33.5536 -27.2456 -27.2673 -19.6982 -14.9549 2.2622 0.730475 2.85817 
3.99818 3.48716 5.96724 3.38277 3.00408 4.18896 0.498211 -5.60433 0.0719566 
0.0834916 -0.305613 4.94813 -31.8629 -21.998 -35.489 -23.69 -27.6727 -17.6043 
-15.1959 -29.4758 -4.58714 1.18316 2.17859 2.76359 2.38673 7.52268 -12.1286 
-12.2307 -9.67817 -15.9439 -19.0209 -13.2862 -7.83708 -11.9431 -15.8467 -16.7509 
-15.5735 -5.16644 -18.5858 4.99057 0.284922 5.02946 -0.882949 -1.18101 3.47189 
2.04794 3.48239 3.65607 1.33226 1.26729 4.19702 4.93024 5.06053 0.728795 
0.463105 3.74336 3.88308 4.86256 1.99297 1.94798 1.2503 6.31352 6.20124 
6.75957 -1.65011 -1.79365 -6.79846 -1.66483 3.1842 -4.57142 -2.0664 -8.71791 
-6.40974 -4.85797 -6.25513 -0.268895 -5.03497 2.10063 1.58376 -8.68688 -5.28033 
-3.00141 -2.31072 -11.8325 -4.22394 -3.17517 -4.81152 -5.46885 -5.47599 -5.23641 
3.98109 -0.668572 0.823335 -6.90945 -6.23252 -11.9467 -17.8061 -13.5851 -29.7248 
-31.4299 -4.98119 -9.61212 0.869306 -16.5935 -0.244345 0.120909 0.270509 -0.871453 
3.6978 3.58182 0.860237 0.736969 4.35859 3.06788 5.16593 0.629 -3.51132 
-6.52726 -7.00639 -6.55622 -6.92446 -6.81335 -6.22695 -9.34911 0.835331 4.12513 
6.83067 2.4162 7.28559 5.54544 3.88434 6.56222 6.0557 5.64913 6.57451 
3.96308 7.81335 7.35536 7.98538 2.75006 5.73167 1.70156 4.36152 3.10215 
-2.28271 4.36717 -8.78162 3.94377 3.06309 4.34716 6.41349 3.96521 -1.44809 
-4.61482 6.87044 5.15272 -2.57358 -3.36674 -2.87631 -3.6384 -1.90497 -0.707698 
-2.34451 -1.17526 -1.77088 -2.2363 -1.70882 3.63177 4.85389 3.38586 2.20957 
0.273332 -6.16018 -5.23821 -5.35681 3.99909 -8.49922 -13.5071 -3.40009 -8.14012 
-8.96576 -8.41726 -9.72723 -9.49833 -8.0994 -5.98665 -7.9601 -7.76675 -7.58403 
-8.24621 -9.36779 -8.21568 -2.739 -6.42268 -7.36881 -7.4779 -7.57969 -1.70178 
-5.22386 -1.95883 -4.94296 -5.98991 -5.56142 -5.00987 -5.74064 -6.12104 -6.61172 
1.6114 0.278225 -2.61663 5.90342 1.92437 2.1191 5.65421 3.92301 3.43881 
-24.9734 -1.43352 -4.18845 -1.98917 -2.39639 -1.98115 -4.01399 2.64125 1.42562 
3.70848 -11.3333 -2.29958 0.03371 -4.86652 -6.7874 -5.08562 -4.42884 -5.17293 
2.90343 3.29145 2.48263 2.23296 0.118775 2.01414 1.75025 -2.79812 -16.1672 
-6.73237 -4.52359 -5.43905 -6.5699 -14.9485 -9.5125 -18.4209 -18.6597 2.88221 
7.14251 5.86841 3.14331 6.06504 4.00114 4.30705 3.31145 0.0384938 1.60296 
1.4017 0.0355624 0.924795 -0.824447 -13.2094 -11.5075 -8.89175 -12.7758 -10.0321 
-8.01031 -6.25397 -5.41656 -8.85434 -10.2709 -14.1646 -4.91165 -0.779953 -1.07303 
0.721106 5.40561 5.98983 5.87022 7.46815 4.40189 7.59627 7.32553 3.68466 
-6.02349 -18.9502 -24.5623 -12.6509 -5.88592 -12.5726 -18.2793 -12.6012 -20.9835 
-17.3749 -16.2169 2.7723 6.16183 4.75056 -0.214988 6.67194 6.62153 6.98207 
6.12539 1.61714 7.10398 8.08484 7.77336 7.61632 8.22427 8.0271 2.49045 
2.07325 1.48822 2.27949 0.980757 0.58059 -16.628 0.23039 -29.5491 -18.5514 
-15.6935 -18.7691 -6.68497 -8.8228 1.30577 6.22927 -3.14805 5.61121 -10.8866 
-5.77124 -8.37224 -8.05262 -7.37301 -7.13745 -6.78848 -8.21495 -6.79807 6.42803 
5.87217 6.25198 6.10739 6.25964 6.30686 2.17304 2.31511 -3.91869 -2.62101 
-2.78633 -3.63523 -5.00388 -5.46988 -3.10172 -5.99804 -1.87464 -4.6999 -8.13774 
0.227059 -5.39565 -2.48796 -2.35117 -3.11985 -2.23298 -0.222707 -4.31266 -3.09866 
-3.81115 1.34519 -1.97475 -14.9641 6.54076 7.24211 6.9396 3.43751 -0.905496 
1.99663 3.92334 2.39149 1.59033 3.702 2.34869 3.09447 3.78761 0.0400513 
3.67498 2.5489 2.94244 -0.541307 0.439847 -0.0207037 0.153856 0.555423 -0.358468 
0.533772 0.429578 -6.21937 -6.98203 -4.72252 -28.6202 -6.19677 -5.5892 -6.34414 
-38.8914 -31.5979 -17.7346 -21.3317 -16.2369 -17.6601 6.83585 6.71258 6.24243 
2.788 4.48522 2.44316 2.96314 -2.72617 7.73477 -4.66371 -11.5788 -11.9851 
-6.15952 -6.84298 7.21646 0.0928998 2.00269 2.87122 1.6541 6.60062 6.37024 
8.1103 4.49422 3.92191 6.47046 -21.6172 -13.2389 -9.34076 -21.8044 -16.3942 
-25.3472 -16.719 -36.1898 -33.0743 -9.9036 -9.32006 -6.78656 -5.29109 0.864107 
-4.41646 1.94341 3.4405 0.530528 1.49652 -1.97337 -0.422295 -0.721613 0.317922 
3.56485 2.39956 2.70516 1.84814 1.57671 1.47514 1.67278 1.20483 -1.14392 
-0.229141 -0.708984 -0.267892 -5.84059 -7.97857 -10.6175 4.84226 -6.58464 -1.5276 
-13.8615 -16.0644 1.8439 -2.94305 -13.3812 -16.4091 -4.47446 -1.69934 -5.24522 
-0.274563 -0.842123 2.19471 1.76656 6.1155 5.82645 5.63303 5.58536 3.93687 
6.03076 -4.11065 6.0988 5.75897 -18.6974 -22.4722 -17.4615 -5.49507 -6.04624 
-5.88356 -5.02777 -4.83623 -4.58744 -6.44279 -9.37877 -9.61257 -10.1762 -9.84889 
-7.70814 -7.88024 -9.78897 -8.82415 -1.55079 -6.75232 -5.54739 -8.13785 -9.93468 
-7.44259 -3.36373 -10.123 -0.964283 -9.37314 6.62591 3.45807 -0.831472 6.2712 
0.432137 0.749254 0.80313 0.484684 0.453987 2.50811 1.99744 2.29816 2.45193 
2.00385 1.97388 1.96683 2.08059 1.78245 2.63245 -17.3127 -23.6553 -21.1734 
0.302912 1.3329 0.678056 0.909083 2.72928 1.52885 0.660448 -0.134399 0.0776322 
0.623855 -1.27416 -0.632773 0.526359 -5.55729 -0.908418 -19.8482 -1.70789 -10.8688 
-1.65905 0.240779 -0.941712 1.98498 -2.95081 1.05011 2.32412 0.272764 0.586862 
4.4632 3.46112 4.77815 4.34917 -16.7666 -7.00958 -10.4078 -17.7858 -1.00877 
3.4533 -3.02417 -3.52627 -16.5792 -15.4534 -8.22835 -11.4418 -6.22937 -7.46827 
-6.72048 5.58133 -10.0281 -7.67361 -6.90591 -9.81267 -8.33227 -9.96217 -8.68401 
1.92302 -3.17673 -4.26542 -4.25256 -3.4897 -14.9733 -9.76529 -6.32604 -14.0884 
-8.39697 -3.99976 -11.7821 -11.8836 -17.3339 -8.0441 -10.0016 -9.80547 2.81064 
2.23242 5.47272 3.35992 6.3288 6.07363 -6.82076 -12.9627 -14.7026 -10.6848 
-9.97006 5.84976 5.40444 5.15952 5.12853 0.641774 4.63078 5.22864 4.66001 
5.06502 -7.97989 -5.20681 -7.41593 -5.87859 -5.9499 -6.89961 -10.9191 -8.35122 
-7.65751 1.24693 -12.0566 8.22853 5.867 0.932161 5.52724 5.79928 6.6816 
6.52958 7.0306 6.90806 6.89821 7.45781 7.40361 5.16078 3.16526 1.62011 
3.8637 6.76162 -2.52701 1.41745 -0.310305 -1.06206 -1.60268 -0.743093 -1.6555 
-8.41833 -9.42455 -12.3532 -13.0846 4.84052 1.73596 3.65866 1.5647 4.19059 
7.48345 5.17264 6.63264 6.00039 -4.68807 -4.84896 -3.77588 -1.08458 0.363465 
0.0682698 1.19325 -8.2344 -8.04516 -8.91746 -8.41149 -8.21735 -7.77857 -7.49917 
3.53657 5.30101 5.2874 -3.20564 4.24165 4.61189 7.68956 7.84494 7.07017 
8.30943 8.27356 0.66832 0.461886 -0.942925 4.97972 -11.9453 2.31021 -5.54977 
-1.15107 -0.831266 2.10586 -1.10233 -1.53654 2.97136 0.63901 -1.54809 -2.41575 
-0.74052 -2.21978 -1.68674 0.333073 -0.723647 0.491857 1.64278 1.65139 2.61001 
-8.18239 -7.71095 -7.95016 -7.85733 -7.26837 -7.82972 0.555058 0.514275 2.18975 
3.49874 2.59084 4.5465 0.31984 3.08047 0.101077 4.83496 4.154 1.41039 
-0.185 3.38364 6.31972 0.282478 6.15417 3.22539 3.51758 5.30982 2.70492 
1.70628 3.02217 2.3495 1.51033 2.86102 1.52184 1.59322 4.0169 3.5877 
1.5902 3.18452 4.10161 3.85871 3.39506 -7.85787 -8.15953 -7.93341 -7.56993 
-7.80264 0.337259 1.94863 5.17123 1.53981 0.226229 1.90038 3.2876 0.768704 
2.92226 4.62257 3.04738 3.1247 3.7161 2.89981 1.6203 3.70791 0.0789042 
-1.26603 -1.92465 -3.21436 -2.14593 -2.43295 0.678891 -3.78933 -1.35613 -1.71079 
-2.30663 -2.08908 -1.78411 1.06079 -2.33387 -6.90498 -8.29091 -7.18074 -8.991 
-7.88963 -9.25964 -10.2762 -8.0388 -10.831 -3.38851 -2.25114 -3.49566 -3.27505 
-3.05803 -4.64506 -2.10547 -3.42719 -2.34473 5.13104 7.73839 7.95473 7.58717 
7.58211 7.29084 7.421 6.93768 7.90186 7.36365 6.96536 -1.35946 7.65891 
-1.66437 -4.52337 -7.14872 -3.15794 -0.300737 0.0253887 -0.161436 0.42295 0.0123737 
6.51519 4.98372 4.94519 5.28847 -16.6115 -11.7519 -13.7303 -11.2679 -16.6204 
7.47238 6.57639 5.01292 -8.16824 -8.97831 -7.23353 -8.05015 -8.29584 -7.94262 
-8.00941 -8.24964 -7.34964 -7.54116 0.901699 4.2972 2.2533 2.83188 -5.95749 
-16.904 4.75878 5.28219 0.425728 3.47425 7.84472 8.41745 7.44772 8.10612 
7.21854 2.35624 2.65889 2.36324 2.1219 1.94341 3.05108 3.14653 -6.19597 
-13.4948 -8.13295 -8.80734 -2.03042 -4.27252 -0.0649445 1.6022 -0.00775014 -2.14666 
-2.33301 -2.48399 -2.38045 -2.18377 -2.33475 -2.21617 -0.398944 6.40804 4.14706 
7.21916 3.30997 -0.537325 5.62826 4.31586 3.34623 -0.849779 -1.01423 1.03966 
-0.426914 -1.50268 -0.943234 1.89715 3.14652 -2.96271 -4.27044 -4.5674 -5.31312 
-4.87162 -5.81688 -4.23117 -3.73678 0.658501 -6.40016 -2.98733 -2.96802 -4.06678 
-3.27314 -3.53803 -3.69223 -2.88483 -2.54162 -3.31935 -4.63535 -2.93841 -6.82165 
-2.97084 -13.5754 -1.77311 -18.6962 -16.3994 -21.5601 -9.73229 -23.0966 -7.04418 
-18.0172 -7.15527 -9.99586 -6.59762 -7.96908 -5.74944 -11.1086 -11.5283 5.9333 
4.37555 0.788492 3.00012 3.62593 3.44774 4.35105 -0.334438 1.01997 0.223471 
0.899099 0.377545 0.331969 5.06117 5.51356 1.74761 -0.118467 6.28137 4.51183 
1.36257 3.82139 4.09336 1.82232 2.842 1.49144 3.3589 1.49329 2.91654 
4.7341 1.32259 1.4418 2.75045 1.88377 4.26381 1.90862 0.172549 2.21405 
6.92055 4.69293 2.31703 1.56155 2.72481 2.75973 3.52015 6.16727 7.21928 
0.109448 1.78973 0.235683 -2.84079 4.02634 0.278949 0.350169 -0.808329 -0.766324 
2.366 -6.56265 -3.46933 -8.62765 -4.10367 -6.33657 -2.57586 -3.75497 -2.23771 
-3.94634 -4.3702 -4.35807 -4.60034 3.66998 -7.3143 -3.31861 -5.38965 -5.57478 
-19.2202 -3.72966 -0.316804 -7.33277 -6.85599 -12.4709 -6.65988 -6.06121 -2.09607 
3.38188 -5.32562 -8.68385 -9.60201 -4.35225 -10.8351 -6.28125 -7.88674 -0.108031 
-6.88875 -7.65257 -10.9906 -5.82659 5.8596 1.76621 3.85275 3.56415 3.69682 
2.75132 3.72516 0.34801 1.40086 4.51328 -1.3006 1.31367 1.45904 1.9474 
0.179441 2.30467 1.64802 1.36194 2.10455 3.93197 2.21198 2.2745 1.20419 
1.24815 -0.497297 0.0918679 -0.0940104 3.91763 -5.33158 -5.03846 -0.605286 -4.00932 
-5.00697 -4.53145 -22.2305 -21.6219 -23.1083 -4.5167 -27.5574 -26.7931 -30.0611 
-31.624 -45.8083 -34.582 -32.3427 -35.7034 -39.0063 -39.8804 -33.6526 -4.07409 
-10.6582 -4.47483 -6.58583 -14.6153 -5.82429 6.85617 5.83063 5.49484 4.46527 
5.444 -0.914464 3.64698 5.82167 5.57814 1.42618 -21.6277 -11.3588 -26.8364 
-35.5437 -34.3549 -31.1504 1.55877 -10.3495 0.573118 2.44188 1.26021 0.84 
-3.58984 0.731969 -1.397 -0.856822 -1.53982 -1.78597 0.250393 -1.75822 -0.654938 
-1.23633 0.199991 1.46069 3.0166 3.24935 2.3898 4.19454 3.73956 3.96945 
-2.97598 -1.4483 -1.81007 -1.53725 -1.9012 -2.38443 -2.25104 -0.968301 -0.610161 
-18.2619 -4.33652 0.49158 5.65629 0.69645 0.984133 3.79238 0.889642 0.719408 
0.384094 0.836223 2.62832 2.45061 6.34682 5.74695 7.67068 -17.673 -34.7246 
-20.4572 -9.40338 -19.0785 -24.3405 -1.96052 -8.3825 -8.53013 -7.93468 -9.86265 
4.12401 6.87275 7.61566 -0.0783258 6.09674 4.43763 3.95012 3.9161 2.27989 
4.39154 3.72615 3.8207 3.61358 4.1443 4.78618 3.60282 0.0820718 -0.210801 
6.01331 5.51929 3.85198 4.11228 3.8849 4.26168 -11.4754 4.86918 -39.1262 
2.38039 -17.4642 -31.0015 -22.2229 -4.51352 -9.60469 -5.09481 -5.36752 -5.8404 
-5.0564 -4.74787 -3.58527 1.5332 -4.01124 3.42023 0.794226 -4.39393 -2.75096 
-0.38917 -2.02773 -3.5126 -0.477855 3.58827 1.85836 3.11187 3.4882 -19.8282 
-18.8439 -1.78482 -21.1985 -16.2618 -20.7949 -4.91227 -8.50497 -7.63612 -8.59568 
-10.6455 -10.7418 -8.11548 -4.18122 -8.06621 -8.101 -7.9924 5.64393 7.80456 
5.83487 3.97157 5.36232 7.72235 4.20664 2.26462 3.99569 4.46479 6.75573 
6.97226 6.42804 6.47972 6.74522 6.39338 6.45382 6.18318 -1.50539 -1.01805 
-0.996201 -0.923395 -1.08301 -17.5341 -4.51316 1.32645 0.752004 -2.1664 -1.75481 
-4.17655 -8.2629 -11.0694 -8.10706 -0.0680939 -0.224654 0.480288 -7.72184 -8.35248 
-8.56568 -8.22655 -8.45184 4.49296 4.05091 -3.7236 3.72666 4.82249 2.78182 
4.55316 0.0518376 4.54231 -16.2867 -14.0471 -6.04355 -5.75122 -4.36963 -17.7087 
-14.7619 -8.74397 -18.4641 -13.1194 -19.8823 0.400946 -1.46576 -19.5167 -1.14197 
3.93287 1.37854 -7.99736 -11.5087 -17.7826 -8.1188 -7.98707 -8.11807 -8.03836 
-8.17766 -7.69193 -7.96916 -7.74666 -5.09083 -9.6657 -16.0918 -21.6961 -14.0755 
-9.08722 -13.7789 -25.1902 -17.4406 -12.6689 -5.56904 -6.15136 -7.97384 -35.836 
-6.81296 -4.51673 -4.43354 -5.2067 5.02305 3.22369 3.51706 -0.0343951 0.0504667 
1.36739 0.522115 6.49432 4.55594 3.67764 5.05964 0.791892 -2.15489 2.62926 
7.61078 6.47073 3.37938 5.98885 3.36711 6.11349 2.6239 0.0519879 2.56242 
-2.99706 3.14694 2.94633 3.07738 2.74692 3.00235 1.05963 -1.77378 -2.84423 
-6.51122 -0.23601 -0.226751 -1.06447 0.271542 -1.11802 0.162756 -3.11907 4.8342 
2.64252 4.3131 -10.307 5.44059 1.06913 4.58621 4.448 3.87329 0.623866 
2.36262 4.48987 1.08495 -14.9553 -16.2879 -19.2079 -8.64925 -0.922611 -0.0203793 
-0.268391 -5.69435 -6.38806 -8.44825 -8.06645 -9.84513 -8.75085 -3.69702 -4.48664 
-18.756 -1.13994 -1.74475 -15.4576 -4.13764 -3.20767 1.91048 0.96378 1.07923 
1.22281 0.807013 0.765827 0.961019 0.460995 4.17735 3.54807 1.19977 1.17317 
4.5892 3.92983 3.37207 3.66918 2.80814 4.11111 4.70757 2.98316 -24.9598 
7.24976 4.22745 3.39472 3.56876 5.95609 6.80189 -1.58983 3.61069 7.21295 
5.82376 7.20713 6.67411 1.38723 1.13612 1.14744 0.961916 1.31943 1.48843 
1.35463 1.02668 1.01192 1.43311 -5.98385 -10.002 -5.39849 -13.6207 -26.7307 
-10.6616 -7.96301 -18.0948 -5.07613 -6.54193 -5.61486 -4.26892 -3.0705 -2.10643 
-1.87371 -1.16936 7.15741 7.61436 6.2547 6.52285 6.44306 0.995681 0.772424 
0.959196 5.13521 -7.34212 0.506384 6.06571 6.50235 3.83603 6.55377 5.92818 
0.06868 -1.29135 5.93238 4.21835 0.405276 7.16851 5.46477 -0.224916 0.277042 
5.79355 -26.4641 -21.7789 -20.0666 -7.64067 -11.7641 -29.6585 -31.5514 -21.2109 
-18.008 -42.4887 -34.8771 -40.6925 -2.76901 -35.6396 -3.33886 -6.66561 -3.75241 
-4.48209 -6.6503 -6.49006 -7.88555 -7.66191 -6.81053 -9.67948 -8.09365 -8.03372 
-7.02383 -0.933713 -0.930186 0.330136 -1.87959 -1.7901 -11.7798 -12.7865 -9.47365 
-9.68156 -12.0539 -15.2617 -9.87861 -7.94525 -8.67873 -7.95753 -8.75422 -8.41473 
-6.1766 -7.67997 -8.02012 0.304108 -0.563803 -0.542926 -2.81055 -1.69579 -4.2353 
-2.17028 -1.56004 -1.63077 -3.24669 -2.96895 -3.43998 -2.91196 0.0402051 0.148637 
-2.08659 -2.33395 -4.26187 6.95921 4.77386 -8.15556 -2.09059 1.94644 1.61318 
-1.71967 -5.52945 -8.54373 0.251653 -7.26762 -6.58895 -4.44607 -1.57242 -3.27638 
5.83169 2.24086 0.0434879 -7.41832 4.25692 1.82427 -13.4792 -19.9818 -15.9179 
-18.1772 -22.0077 -17.5401 -1.05599 -9.00852 -18.0117 -7.80068 -6.86737 -8.09015 
-5.16635 -8.39061 -8.4755 -8.56334 -8.42072 -5.84726 -7.75734 -15.7469 -7.01259 
-13.5867 -13.3208 -8.459 -3.76974 -10.4354 -15.518 -16.7557 6.1722 7.43779 
8.21679 6.6671 5.24642 3.62056 4.25275 6.69667 7.15756 5.79002 7.34591 
4.32007 -0.547416 7.90966 3.77908 2.13879 2.11097 5.45718 6.48541 0.951093 
-0.675605 -1.03259 -3.37431 -1.15954 -1.4223 5.1176 4.15992 2.91094 6.95347 
7.07971 3.98448 7.09639 7.09385 7.78667 2.28564 -4.57406 -3.78674 -4.43514 
-6.56064 -5.36011 -5.51288 -6.46305 -5.66231 -3.94448 -38.3606 -2.7548 -1.763 
-1.73831 -1.423 -1.94627 -1.63095 -1.97853 -1.63886 -1.41015 1.3897 -4.46285 
-2.40451 1.35536 -21.4005 -18.3674 -6.94148 -7.75433 -7.41284 -7.16774 -7.16947 
-7.42325 -6.83649 1.28294 4.70451 4.65726 0.340716 1.6469 5.28872 4.68936 
5.28279 -9.5394 -12.307 -11.094 -8.70291 -10.0621 -10.6781 -10.0226 -5.31247 
-8.05973 -7.9741 -5.30101 -6.50638 -7.99193 -5.36705 3.4699 -1.39682 -4.65149 
-5.60293 -2.66579 -0.326668 -1.69241 1.67234 1.90042 -1.17382 1.0373 -0.0188841 
-0.132152 -0.788234 1.7595 -0.175293 -0.745312 -6.0187 -13.3086 -12.7624 8.24846 
8.32154 8.33251 8.24904 7.74125 7.99973 5.70121 7.8885 8.34845 -0.732751 
-1.2248 -0.684478 -0.63941 1.88061 -0.0145957 -5.65781 -5.40981 0.796899 -6.54892 
2.6588 -16.2145 -11.2509 -0.86677 6.63629 7.74902 7.13757 7.0343 2.17698 
2.779 3.17137 2.62341 3.47294 3.0671 4.56405 2.73233 2.78393 2.37248 
2.38492 5.81411 4.84889 -3.16141 5.66927 0.633065 -1.71332 -2.39021 4.43196 
-0.0368824 -1.12463 -3.17629 -2.4455 -1.08772 -1.12241 -26.8954 1.68904 4.60547 
4.5874 -19.1 -21.6642 -18.6909 -19.5837 -26.1769 -19.4716 -16.1877 2.26117 
1.39934 1.72976 2.30053 1.37117 1.54017 1.415 -21.2715 -33.6976 -14.4509 
-8.07996 -13.1541 -9.98932 7.08327 5.62671 6.66457 6.12859 -1.92454 7.49058 
7.10003 6.75295 6.85768 5.8854 6.02263 5.41269 5.97151 3.8047 6.59978 
4.49378 7.46839 -18.0179 -21.9072 -17.0378 -18.2927 -17.8296 3.32089 3.17542 
3.37873 2.93354 3.84749 3.95558 4.22047 -0.152439 -2.88995 -7.58361 8.47874 
-5.27589 -4.34951 -10.4592 -8.02157 -13.9205 -13.5743 -2.51623 1.01656 -10.2754 
-11.4428 5.7335 4.8122 7.02543 8.49343 5.31847 -14.8728 -18.7299 -12.4379 
-16.789 5.65294 6.13212 6.31043 7.15712 8.24908 -0.615922 4.02257 3.78271 
-3.17453 -0.0138759 -2.87427 0.595184 -7.83288 -0.539171 -2.64151 -27.4068 -28.9335 
-9.27747 -23.4099 -24.5571 -20.4423 -39.6551 -23.208 -28.7143 3.26239 -8.94574 
-6.38997 -8.30663 -7.42044 -6.11195 -10.3933 -9.85113 2.12483 2.20312 2.5201 
2.84097 1.65877 1.62917 3.9275 4.2816 3.52646 2.20954 3.53652 -1.44268 
2.32286 0.661173 0.91597 2.47575 2.53343 3.01721 -8.51143 -8.71836 -8.85653 
-9.58227 6.90327 7.20081 7.19123 5.83769 7.36001 6.96524 7.46102 7.37325 
7.87679 -3.70113 -2.91087 -2.50136 -4.41503 -3.66422 -2.95503 -3.43476 0.228755 
-7.00745 0.82419 7.15932 5.43628 -7.78594 0.489867 5.0275 6.41507 2.26207 
-40.0243 -17.7515 -36.0745 -35.9969 -34.0827 -41.3832 -6.82009 -15.4092 -33.826 
-36.4657 -30.0474 -29.9709 -27.9175 -26.4885 7.71229 6.64414 8.47079 8.08392 
2.84409 5.53811 6.57234 7.68767 6.11709 6.85673 5.52493 -5.3794 -4.0743 
-6.06594 -7.52316 -8.14643 -8.11021 -11.7748 -13.9669 6.9866 5.53238 6.19391 
5.68633 7.51224 -12.2999 -10.7325 -13.6855 -11.2488 -10.2814 -10.1927 6.75379 
5.77416 4.92595 6.89599 4.80276 6.71604 -7.85413 -4.36622 -7.473 -10.6748 
-0.617163 -2.60595 -11.6332 -1.33633 0.374468 -10.2412 -14.1905 -13.4947 -12.6862 
-12.9725 -6.18743 -10.396 -9.40801 -10.9913 -12.8949 -9.96751 -6.44646 -7.7752 
-11.2757 -11.1361 -1.16086 3.17145 2.9884 3.63372 3.23855 -9.19977 -15.0838 
-8.35752 -7.72633 -8.39666 -8.90339 -10.5376 -10.376 -17.4257 -13.577 -8.93389 
-10.4613 -11.5093 -9.36395 -2.85707 6.87216 7.06521 7.80132 6.65938 6.07472 
6.85656 6.804 6.58635 7.73531 8.19896 7.18041 -1.74655 -15.3871 -0.724018 
-1.07902 -0.350426 -0.679032 4.19435 -0.404073 -0.592847 -0.672709 -0.39775 -0.905903 
-0.918539 4.50523 -4.82792 7.00713 7.0115 6.65766 6.85338 6.58933 3.56129 
3.57069 0.612449 0.0210311 4.829 1.82481 5.53035 5.25391 1.20922 2.42264 
2.22033 2.46701 3.25137 4.12626 2.47715 3.81543 0.528247 4.38454 0.233487 
-3.71526 5.10616 3.43157 -2.19601 1.39378 -10.4826 -2.55746 -1.14637 4.91729 
3.39352 4.81105 -1.56387 -3.678 -1.88153 6.13051 -4.26798 -10.6477 -6.80304 
-10.6575 -6.90124 -7.35685 -8.37418 1.40352 2.76153 3.52739 4.93252 1.14908 
3.07856 2.75164 3.50866 3.52188 -0.898511 -3.62024 -3.19013 -3.25088 -3.46942 
-1.1861 -0.775769 -2.10643 7.1065 5.4735 4.29746 6.53357 6.87551 7.62366 
6.15219 6.67959 -0.273232 -0.724831 -0.260256 -1.14144 -3.41416 -1.24003 1.06408 
-0.684093 6.49971 -0.475223 5.22192 3.8468 2.4186 1.47719 3.24421 0.879798 
-0.900829 -10.8682 5.7042 -20.0673 5.51603 -8.36249 -8.54906 -8.34593 -7.69609 
-7.69722 -7.15754 -7.77219 -7.70191 -5.67242 -5.69066 -7.36489 -8.97269 -8.57134 
-8.29255 -7.48968 -6.41947 -7.00374 -7.99481 -6.92459 -17.6417 -18.9256 -13.2717 
-9.12618 4.58447 -7.42924 2.54794 -20.5534 -14.66 -11.7786 -1.06124 -8.10836 
-8.79591 -2.1484 -3.79507 -5.26398 -8.74558 -23.559 -22.7048 -30.5708 -22.4425 
-25.5925 -25.6455 -7.47295 -20.1181 -16.9682 -2.73912 -10.9712 -2.05024 -5.7916 
4.71919 -3.22928 -8.49219 -6.12779 -8.37213 -8.13883 -7.77554 -8.31258 -8.38526 
-7.57984 -8.95153 -8.78897 -9.7069 -34.9375 6.86952 7.17036 7.62876 7.25094 
6.65922 -16.3908 -14.9751 -11.5881 -11.2232 -7.08965 -10.6392 -11.4229 -14.4112 
-12.4174 -14.477 -11.422 -16.3027 -8.70729 -8.34233 -7.98496 -12.0984 -11.3826 
-13.8038 -13.1388 -5.69975 -5.26866 -3.8467 -6.83589 -10.3337 6.33226 1.46786 
5.91712 3.66862 6.52475 5.55163 1.76586 -14.4985 -12.9777 -12.5146 0.695532 
3.41292 3.37109 0.556067 4.34191 3.30202 0.389613 1.85129 1.12968 2.99704 
3.16708 -3.00639 -7.33201 -7.0034 -3.92124 -4.19975 -8.65575 -2.16719 -7.11605 
-8.4814 -20.2075 6.45644 8.09828 7.67033 7.94396 7.48982 8.15241 -36.0389 
-33.6855 -25.1858 -31.8264 -40.4204 -11.8316 -39.1265 0.0474853 -3.31891 -0.252805 
-5.2684 -4.61203 -6.0016 -2.7842 1.81698 2.36586 3.01876 3.22542 1.72096 
0.930385 6.84068 -1.32835 1.75144 -2.94658 -19.147 -11.6093 -12.3509 1.72826 
-8.70286 -19.8614 -28.715 -33.1032 -13.772 -19.6021 -2.41684 -12.7785 -13.0592 
-13.4389 -20.9695 -20.6138 -12.3048 -10.3907 -8.79238 -1.8563 -3.04653 -7.32916 
-7.28563 -7.68981 -11.7295 -2.89855 -5.30084 -8.56728 -10.6231 -5.79736 -6.16302 
-5.11459 -1.92892 0.411041 -1.90388 -1.9119 -0.353381 6.77201 -0.239973 0.687129 
2.11267 1.9445 -0.15104 0.646097 -19.4468 -19.4643 -18.3234 -16.8366 -13.3678 
-6.43869 -5.57641 -12.3425 -1.97422 -0.749372 -2.32332 -3.97455 -1.06824 -2.44902 
-10.1448 -6.95871 -13.7241 -7.16749 -12.8504 -5.06892 -5.6991 -0.583402 -2.13664 
-0.507779 -16.9739 -6.15096 -0.20723 -1.59074 -0.812223 -1.67167 -3.96912 -0.695661 
0.51556 -0.420552 -0.188358 1.74783 -0.413859 -0.24469 -27.981 -37.4208 -34.0294 
-23.5504 -28.0302 -9.49857 -7.81604 -10.7007 -11.2278 -8.64775 -8.7986 -9.76762 
-8.74158 6.24715 7.25971 6.76512 7.76369 6.73933 6.80724 0.670067 -7.911 
-7.93106 -7.55185 -5.01564 -7.7526 -7.12306 0.283876 5.31834 6.3851 3.46124 
3.84043 5.1664 7.08524 2.93439 4.76192 -4.46601 -0.226621 3.40738 4.28931 
3.26835 3.99842 5.18683 6.79129 4.06121 4.19156 7.76553 7.51857 -9.64244 
-11.334 -9.92085 -12.7387 -24.459 -19.7048 -2.40127 -8.48308 -6.20132 -3.26922 
-2.68671 -7.56242 1.55414 0.348388 -0.355295 0.251318 1.37641 2.03155 0.517279 
-0.519537 -16.3934 -18.5352 -0.174374 -3.54118 -27.1411 0.442434 0.0939895 -1.78547 
-1.29192 5.23955 -1.01768 1.85098 4.13524 2.43233 2.48388 2.9168 2.71766 
-6.73821 -1.15743 -1.49774 2.07518 3.58132 3.1121 -0.581306 -7.85998 -5.34817 
-6.97889 -3.77015 -8.42163 -4.54616 2.47371 2.82728 2.03661 1.35125 2.02458 
2.1651 1.52889 1.05637 1.8709 0.503089 -0.680142 -16.4891 -24.9322 -18.5891 
-19.0071 -21.322 -26.0041 -26.0035 -27.9386 2.72673 1.79016 1.71524 1.92302 
4.23762 4.55488 4.65371 5.17096 5.07214 5.20382 5.46387 5.68871 4.80119 
5.17023 -1.60206 -0.0965061 -0.588391 5.63522 3.83037 4.00513 5.89364 5.75269 
1.91269 6.79281 -1.94487 -0.75973 -0.306066 -1.13711 -0.6392 -0.185536 -0.199598 
0.0753052 1.16211 4.68292 1.69885 5.27051 5.02662 2.85854 5.12593 4.80976 
7.24342 7.89227 6.33747 7.17432 6.96315 -9.11759 -11.0779 0.712391 -7.27936 
-6.42615 -12.8787 -16.0714 -13.9916 -24.1829 -9.91803 -18.3254 -3.22529 -4.65001 
-5.52452 -5.97116 -10.0606 -3.18301 -12.6886 -1.20702 -2.08457 -0.0477669 2.20308 
-4.15347 5.32909 4.04751 -8.10119 -3.08732 -5.21827 -1.38572 -1.48421 -1.8379 
-1.40461 -1.8545 -2.33994 -2.32144 -2.63081 -2.64931 3.08265 1.13818 -2.24476 
-9.81963 4.42977 -0.241576 -8.52109 -11.0115 -17.3829 -8.69808 -7.15775 -9.44898 
0.258178 1.33105 -2.78062 1.8607 1.57484 -5.67115 -7.94845 -13.6419 -7.30368 
-7.20121 -8.79063 -5.9902 1.20987 3.17621 -1.85837 3.87561 2.34047 -8.72445 
-8.87197 -8.24265 -8.47545 -8.85866 -8.49218 -8.33204 -7.30674 -10.1642 -36.0687 
-31.9244 -32.7105 -25.4008 -21.7604 -2.87098 -33.2553 -28.1953 -27.3558 -26.1447 
-25.3051 -14.4546 -15.9963 -14.5008 0.871935 -20.5948 -35.8256 -22.6692 2.67522 
3.13793 0.416747 2.03256 2.69547 3.07737 2.23566 1.95303 7.52386 8.13863 
7.65207 7.95501 7.56903 7.88014 7.52585 7.69676 8.0597 7.90251 7.59396 
7.77517 0.856577 1.82396 2.82205 5.54627 5.73475 5.19203 5.17927 6.15763 
-0.843377 4.05458 1.05808 1.39528 -9.23408 -14.0701 -18.0948 -11.4386 -9.51618 
-6.20803 4.49531 -0.978916 -0.780312 0.568638 -0.161391 -0.761762 -7.44507 -6.99849 
2.00434 3.6729 3.10147 2.8533 3.10007 2.897 -17.0835 1.70573 -0.647105 
-0.953523 4.97116 -0.903742 -0.425222 -0.608295 -1.40271 0.985707 -0.789542 -0.919325 
-3.81393 1.42635 -1.62454 1.85063 -4.58563 -13.5216 -0.880348 2.87572 7.9051 
-13.4656 -2.82346 -2.56524 -3.72442 -3.90957 -4.16765 -4.98916 -3.61574 7.58165 
6.84927 7.75449 6.42894 6.65379 7.5489 7.50522 7.25971 7.4701 5.15961 
6.63149 5.99942 6.5398 6.12274 5.95209 -8.01716 -6.64527 -4.20114 -7.99735 
-3.99716 -8.66925 -5.50837 -4.36574 6.46785 5.14073 2.94432 -6.0745 -4.72476 
-6.27773 -4.04324 -5.14301 -3.76517 -6.25292 -5.92469 -5.06879 -5.39701 -7.46759 
0.209494 -1.13928 1.53987 5.35949 2.54473 7.99211 0.561457 -0.807447 -6.9528 
-6.57815 -7.7527 -6.56382 -6.58723 -6.94843 -7.48525 -5.88829 -5.49213 -5.90137 
7.06432 5.74543 5.74625 4.6698 4.98739 7.77244 7.96722 7.58283 7.35288 
7.78818 7.89257 7.94591 7.54436 7.46372 -1.35209 -0.988933 -1.39619 -1.15577 
-2.01381 -1.55777 -2.20694 -0.876905 5.36658 -1.32134 -0.161714 -0.643999 1.03519 
-0.482925 -0.934857 -1.1781 -2.30717 -0.352293 7.58915 7.74504 8.07385 8.22972 
7.24852 7.26688 8.14835 8.40684 -1.36216 -1.39974 -2.7593 -2.00717 -2.32972 
-1.51285 -2.61644 -8.13173 -8.22704 -8.21657 -7.8812 -8.09146 -7.82295 -8.03321 
0.195576 0.800365 -0.347065 0.642287 1.72378 2.42857 2.70436 2.54962 3.10151 
2.63031 -8.81642 -10.0173 -10.9989 -8.91424 -7.12291 -4.48332 -4.95517 -5.46396 
-4.78425 -0.152384 1.77891 2.20772 3.88992 1.78883 -2.80796 -1.64493 -0.75473 
1.6735 0.273736 -0.646912 1.22418 -0.362263 -3.85938 -4.21575 -2.89674 -2.6349 
-14.0278 -20.5899 -9.78746 -9.72416 -16.7046 4.75673 2.38081 2.57007 2.64902 
2.31421 2.50573 2.19011 3.46539 2.46406 3.26681 -2.54226 -27.2641 0.910055 
-1.29031 -2.32154 -0.702087 -2.45054 -4.10654 -12.4718 -2.92504 -0.971118 -3.47466 
-3.57328 -43.4827 -40.0374 -37.1953 -41.3674 -37.3898 -44.8765 -43.4243 -31.0701 
-33.3417 -1.6442 -3.81847 -1.01778 -1.24669 -1.37004 -0.310423 0.626932 2.38249 
0.557617 3.61062 1.53558 0.102957 1.54783 4.08381 -8.13166 -23.3805 1.61559 
2.44486 1.65358 1.91408 3.87212 4.4069 3.94861 3.28139 3.29998 7.41275 
7.90265 7.7515 8.05682 7.75863 7.74766 6.43886 -7.48467 -1.43388 -1.78511 
-1.84071 -4.72523 3.02069 -1.46918 -1.80358 -0.0466058 -39.0235 0.866958 -0.518932 
0.25127 -13.5154 -1.52276 -10.386 -20.9817 -5.86965 -8.59443 -13.9602 -4.34128 
-0.637594 -3.2307 8.05793 8.43781 7.6883 7.7548 -8.79856 -8.82492 -8.78525 
8.38906 -8.27434 -7.73114 -12.7052 7.23745 6.98524 7.0667 4.86882 8.13113 
-8.65542 -8.87369 -8.11464 -8.30766 -9.0902 -8.3156 -8.6899 -12.2335 1.77795 
-1.1164 0.0122301 0.369028 -4.32009 1.28503 -1.0223 -1.26287 -1.14055 -2.58051 
-1.52617 -1.7684 -1.06644 -1.20073 0.710366 1.06382 -7.50365 0.413921 -2.18248 
7.66996 7.62402 6.90673 7.25605 7.47139 8.21089 7.45399 8.21122 7.6946 
7.25031 -2.66441 -1.05287 -2.75047 -3.31087 -5.4606 -2.85744 -2.81411 -8.67854 
-8.87273 -2.06258 -11.2453 -6.4023 -7.79618 6.48709 0.290434 0.289484 -0.502961 
6.69101 0.406083 -16.4686 -3.52376 -9.1993 -10.4246 -2.69064 -6.95617 -8.90252 
-8.93902 -3.86388 -16.2213 -11.0421 -10.6551 -9.56258 -9.73586 -9.83466 -24.3254 
-26.3378 -26.2334 -24.5304 -22.1475 -24.6543 -7.81205 -14.3168 0.771995 -29.2837 
-17.3266 -16.0565 1.30332 5.18912 -1.10535 -2.9662 -2.63306 -0.973548 -5.70702 
-1.95631 -2.45239 -14.405 -12.6165 -13.2483 -15.5153 -13.9007 -19.8011 -17.3055 
1.92312 1.99188 2.52318 2.2975 2.58842 1.57948 2.54249 7.37964 5.67441 
7.53583 6.10231 4.84484 -10.3247 -10.268 -11.3172 -11.1557 -8.5972 -11.7275 
-13.2226 1.34937 3.88716 2.29598 2.39724 2.03402 5.60056 7.75856 7.96786 
0.727309 -3.58957 -1.68099 -1.63689 -3.99368 -0.0649476 -4.36859 -1.34067 -15.2542 
-14.5946 -15.3616 -15.647 -18.1375 -17.2726 -17.4845 -15.6766 8.5314 -7.27664 
-6.80044 -7.45097 -7.48256 6.90923 7.02926 6.86323 7.25677 8.28351 -42.2632 
-34.2622 -42.7512 -36.7263 -27.5501 -25.2307 -32.0059 -29.6865 -25.3882 -20.1345 
-22.6541 -0.55171 -21.9381 -20.784 -27.4891 -31.7779 -21.865 -25.3986 -25.4935 
-9.05792 -8.6761 2.13846 2.23766 2.00327 -0.204249 -1.16882 0.966516 -1.79999 
-3.61075 -1.60039 5.41953 5.93051 5.1313 -1.08602 -0.324811 -0.762433 0.900486 
0.225778 -6.48303 -1.88818 2.68379 -1.82792 -5.88722 -6.92583 -8.51781 -7.13738 
-5.60334 -6.50723 -7.89647 -7.26854 -15.3732 -0.116033 -0.305976 -1.28294 -0.942785 
-1.76094 -1.91009 -4.65883 -5.12576 -5.15948 -6.29398 -3.03157 -8.45808 -7.9544 
-1.47802 -8.95085 -0.148559 -13.561 5.06545 -13.051 -9.58783 -16.3826 -8.52804 
-7.21129 -3.88359 -5.11646 -5.46202 -35.1817 -34.651 -4.573 -31.8211 5.14272 
5.03387 5.37162 4.71893 4.39316 -3.66654 -3.81073 -3.6528 -5.66382 -3.60021 
-4.31835 -0.632525 -3.3758 0.660378 -0.504372 -0.0286207 0.892152 0.105517 -5.45209 
-25.0651 -16.6581 -8.09544 -17.5735 -5.66054 1.69572 1.48336 1.96416 2.25831 
2.23866 4.64065 -0.169655 -2.09057 0.415736 -12.3934 5.61915 5.5806 5.53722 
6.32693 5.67049 6.17043 6.57059 -1.3497 -1.32293 -1.64826 -1.8189 -2.39018 
3.60177 -42.4473 1.67219 0.681714 2.57377 -1.56803 -1.27642 -0.698962 -0.774807 
-5.04113 -2.03821 -10.6591 -1.93065 -2.52629 -2.26167 -2.91596 -1.79546 -0.395206 
-2.06041 2.23172 4.19524 2.4198 2.31531 -0.910627 -0.576799 -2.06319 -1.63067 
1.05336 -9.27482 4.13727 4.51988 3.88931 2.91537 3.62393 4.02993 2.79788 
-14.5682 -8.23627 -16.7494 -13.4019 -18.0101 -10.1206 -16.902 -6.8496 -9.39607 
-4.66427 -10.8797 -7.57202 -7.20865 -8.44693 -8.42698 -7.49922 -4.46279 -3.16488 
-3.97986 -3.86786 -3.46162 -2.76907 8.31233 6.67647 7.84853 7.79366 7.9791 
6.81894 7.60968 7.6211 4.62506 -3.63749 -0.256271 3.01958 6.10083 5.98995 
6.40918 4.77061 7.01086 7.25863 7.09818 5.50471 4.76992 -1.06446 -1.72823 
-2.62795 -2.8636 -24.3906 -1.12391 -1.12412 -0.184032 4.15684 4.22324 4.30832 
4.25714 4.62228 3.84611 -6.27652 -5.95541 -3.44876 -7.12034 -5.36963 -8.12098 
-6.82287 -7.54766 -21.8063 7.18112 8.50913 7.10541 -8.50404 -11.2725 -4.68554 
-6.275 -11.1263 -8.52803 -6.22824 -11.4137 1.17145 -0.921021 -0.922246 -1.09249 
-0.787127 -0.938988 -1.08374 1.88779 3.12394 3.16032 -0.787192 3.01619 -22.9523 
-30.0956 -26.1637 -30.7233 -24.7655 -27.4665 -25.3523 -22.8357 -0.177211 -0.13314 
-0.128518 0.0636861 0.0683082 -25.0044 -20.8579 -23.3014 -10.779 -9.66164 -9.13273 
-10.3666 -14.1374 -10.4819 -1.04439 -1.64371 5.67303 6.1643 5.02637 4.451 
6.54493 7.8813 -4.63511 4.4849 7.63177 6.98703 -7.73289 -7.85337 -7.74115 
-7.86163 -7.62641 -7.46103 -8.25068 -8.20148 -0.555107 2.90177 6.285 1.72915 
-0.589324 0.579641 1.21043 2.83148 5.57846 0.726544 0.448663 2.41366 0.563191 
-4.83179 1.22864 -0.110477 -4.63977 -0.472356 -2.5815 -13.6552 5.11197 4.97691 
3.56573 3.50031 3.40752 4.05585 3.30273 3.59094 -6.78153 -10.4798 -8.09786 
-4.95873 -5.97196 -21.3219 -21.4094 -15.2695 -10.6082 -15.1112 -40.3123 -0.603828 
-1.95277 -0.705063 -0.49824 -0.27823 0.397023 -2.78772 -0.645534 -20.3446 -1.085 
-0.89196 -0.86848 -1.36878 -2.76551 -3.12531 -1.14655 -1.1723 1.35357 4.67143 
0.932094 1.0486 3.82523 -0.298388 0.817402 2.87458 7.61328 7.36428 8.03724 
-7.93887 -42.3184 -10.1434 -2.82873 -2.7631 -7.1518 -11.893 -6.13802 -8.25282 
-7.38617 -7.87704 -5.8991 -3.4697 3.45695 3.21196 3.63626 0.18133 7.36037 
6.0902 -5.97286 -11.661 -8.27043 -7.17995 -10.9748 -12.4248 -11.9057 -12.5854 
-5.80716 -11.4477 -1.35088 3.864 1.13328 2.66667 5.7087 2.60781 -20.2296 
-22.0029 -20.4062 -22.2405 -19.6669 -21.7185 -22.9451 -1.6186 -5.73373 -3.02499 
1.07925 -3.6795 -3.44216 -3.34623 -2.88958 7.67066 4.80763 5.89405 6.93832 
5.64411 6.24209 7.1928 0.335826 2.94745 -3.41413 4.6848 1.72101 1.99328 
-6.82557 -4.03915 -4.02702 -1.72021 -4.94794 -12.0617 -6.65674 -6.93015 -3.09312 
-5.66247 -3.73669 -6.82225 -9.31518 -3.4711 -3.65803 -3.78668 -2.9948 -2.43512 
-1.31483 -2.02191 3.86729 2.4361 -2.71735 0.394224 1.35356 1.00464 1.01401 
1.46095 -21.0626 -19.9937 -22.3423 -18.1376 5.92467 0.0912931 6.04502 5.08574 
1.10807 -17.2983 -15.7391 -16.3853 -12.295 -17.0932 -15.2699 -5.54776 -9.36382 
-4.60529 -31.0194 -9.96671 -9.6086 -1.36052 -9.4513 -9.89039 -6.12267 -8.41582 
-1.35256 -9.7496 0.347632 -11.907 -0.205388 1.57821 -0.668098 1.21589 -1.45303 
4.37078 3.91535 6.94748 7.71226 4.73898 3.75268 2.24913 3.30104 0.139072 
-2.55329 5.01052 4.15316 5.9979 3.89411 6.14249 -8.21697 -7.82966 -8.32699 
-7.99095 -8.16385 -7.9687 -8.06871 -7.33237 -8.50322 -7.59327 -6.41853 -6.65162 
-5.19619 -7.45738 -8.46024 -5.34541 7.30259 4.65136 6.33434 6.74026 7.05351 
4.55282 4.9097 4.73115 1.35808 -0.140562 2.39538 0.983398 -0.506078 1.21026 
2.93486 3.09468 3.0008 2.33506 2.40087 2.64671 3.52111 2.96928 3.98894 
6.74043 3.2393 6.11828 -0.334877 -0.512989 -0.772417 3.67918 -1.29807 -1.5643 
-5.12407 -4.35388 -3.53752 -7.6792 -2.11262 7.28302 7.24062 5.31994 1.00843 
4.14046 -13.6022 -12.0526 -14.3027 -13.581 -12.0316 -7.09139 -8.81414 -11.132 
3.83843 -10.7392 -7.6368 1.36891 2.15446 2.3394 -0.728345 0.389346 8.22991 
8.12823 7.76982 6.82361 8.01048 8.11024 6.75016 7.43449 0.606636 2.50752 
2.91242 3.18181 2.55238 3.06263 -0.186339 0.464455 4.93098 1.33923 -1.04395 
-29.9428 5.22845 1.80803 2.61617 -3.70234 -2.85525 -3.42771 -11.5132 -10.7876 
-47.5137 1.45686 6.07353 5.82411 5.84228 6.09169 -8.38614 -5.5017 -7.20651 
-6.42713 0.217213 -9.52383 1.37884 4.73084 5.08365 4.82889 1.25831 -1.62619 
-1.58527 -1.83575 -1.90072 5.43306 5.77797 6.8202 4.34248 5.9259 4.58788 
4.28452 0.686298 2.70184 -37.3216 -0.320562 0.79039 4.95443 -1.03417 -1.07001 
-1.11884 -0.745981 -0.395847 1.36523 -10.7916 8.29934 8.38291 8.48863 8.16419 
-16.0871 8.32526 2.45917 2.31768 2.69941 2.64896 -1.42432 -2.13078 -2.79879 
-2.25419 2.08554 -8.05414 -1.14438 -22.8759 -10.4419 -15.5652 -8.95828 -9.54972 
-12.5398 -10.2801 -11.8039 -11.9869 -13.3771 -4.82119 0.358665 -1.13143 -6.76193 
2.06904 3.58609 2.71005 2.84319 2.06928 2.08538 2.1511 2.66645 2.01267 
2.28004 1.7978 1.74428 1.60279 1.65313 2.40276 3.60667 3.68363 3.11744 
2.57501 0.393111 -0.541274 -1.70937 0.724865 0.100606 -1.77135 8.24724 7.27099 
8.13002 8.1223 8.09367 6.78617 7.29182 7.23895 6.65372 6.557 5.91194 
4.5029 6.43248 5.2822 7.86523 7.27148 6.89957 5.03247 6.32879 6.84624 
4.64737 5.22857 3.27022 3.93605 -2.34418 -2.6061 -3.91167 -4.19559 -4.46546 
-4.062 3.76112 3.75794 3.43325 3.65225 3.45105 -12.7601 -5.84217 -2.14725 
2.75976 2.86943 1.481 3.0526 3.18398 2.33887 3.86617 1.58282 2.30403 
-6.97739 -4.73383 -5.19057 -5.91596 -20.542 -12.0045 -14.5291 -13.4894 -13.3263 
-10.6591 3.16619 -7.34041 0.0585949 0.253827 4.82094 2.6427 2.65338 7.60558 
7.63231 7.41514 -26.3236 -26.4155 -8.97479 -11.9082 -12.1692 -20.3795 -12.12 
-14.7817 -9.81638 -1.5488 0.392102 1.29609 0.980244 1.41546 0.70243 4.9134 
2.6361 0.657441 0.746889 2.00874 0.740055 0.66883 3.74014 5.0407 3.2622 
-3.48018 0.0729334 0.579927 -8.02147 1.27993 -14.0355 4.15163 -5.87738 -6.24699 
3.36212 6.77447 -0.623788 7.42871 3.30689 -18.1605 6.44597 1.2492 0.540807 
3.4968 -1.18485 -4.10679 -5.0109 -0.0300517 1.35325 -1.76214 -7.81365 -8.19624 
-8.57023 -8.54528 -8.36186 6.26941 4.42181 6.92058 7.13322 6.41443 6.25197 
7.81123 -3.58219 -1.67978 -13.7482 -0.745933 -0.724858 3.55398 4.45227 3.50405 
2.34303 4.51619 4.33567 2.54192 2.41997 2.32362 2.73511 2.31575 2.50483 
2.62604 2.62557 2.12642 -0.220885 2.96689 5.46777 4.27449 3.30975 -4.77404 
3.54907 -4.58439 -4.48573 -1.19067 -5.42413 -13.2363 -8.11903 -12.5178 -14.4287 
-13.477 -16.0596 -16.1322 -6.41058 -3.65006 -3.53849 -0.308488 -0.187118 0.0177777 
-0.181625 -0.564231 -10.7668 -10.511 -9.08927 -9.97014 -10.4144 -6.81496 -6.18425 
-6.44801 -5.96109 -5.31648 -6.38044 -7.32494 -7.02546 -7.35202 -6.84961 -1.14158 
-1.06322 -1.37498 -1.0574 -0.968859 -1.13551 -1.22141 2.18013 1.90267 2.34101 
2.71899 2.1182 1.93515 2.30443 2.06844 4.241 0.630886 0.981639 1.10083 
0.668596 0.787787 -1.4279 -0.609086 -5.30696 -2.17123 -0.249044 0.0295342 4.74479 
-0.11217 -0.730812 2.92432 3.66966 0.92167 2.76145 -7.49415 -7.58374 -7.28327 
-7.23825 -7.59999 -6.89735 -6.10052 -1.01025 -0.773625 -0.362297 0.0804033 -0.592334 
-0.207298 -0.881514 -16.6507 -2.67654 0.0719942 0.0108678 1.83873 2.12459 -0.431227 
-22.1853 -16.6382 -17.0889 -18.5115 -10.9654 -8.19495 -10.5503 -18.7883 -11.0196 
-10.4456 -12.9612 -4.23796 -5.46934 -5.41091 -3.2155 -4.96308 5.46428 6.28996 
5.98231 6.09745 6.23319 6.78673 6.87913 7.16671 7.51965 -43.7081 4.99256 
5.87055 6.34331 3.35072 4.55262 6.87123 7.79552 5.05783 7.99839 1.32388 
8.06236 1.04954 -2.2837 -5.53238 -4.96678 -3.52665 1.14542 -3.31742 7.03393 
6.67254 -0.0137686 4.13406 4.3234 3.46903 -10.5639 -5.02666 -1.05698 -2.42006 
-7.02616 -6.83235 -8.41881 -1.29887 -1.20571 1.75685 2.92379 -0.277506 -0.451221 
-0.390406 2.00291 -28.3068 -38.7031 8.32246 -18.8496 -21.0304 -23.794 -28.2886 
-31.1381 -2.45562 -2.92363 -2.66806 -2.44591 -2.67713 -0.93148 -2.13445 -1.01382 
-10.0615 -3.20659 -8.42319 -10.4936 -11.0863 -10.7384 -9.51886 -14.0549 -12.7938 
-0.571217 -1.11172 -0.216138 1.17012 -0.609544 -0.109577 7.49159 -0.240549 -0.443355 
-0.588452 -4.96051 -15.536 -16.2413 8.34129 6.52744 -25.2499 8.29071 -25.3418 
1.98279 3.12968 1.45921 5.74145 -0.858355 6.70466 1.57382 1.27034 1.707 
2.09515 1.66276 1.6112 1.5087 1.69748 3.83639 -36.0356 8.27825 5.63848 
-35.1548 -20.8833 -27.3705 -26.2118 -21.2502 -3.61842 -3.02605 -4.565 -1.86112 
-17.6193 0.363345 -0.529495 4.96924 0.486163 0.806968 -2.30339 -0.694355 -2.44899 
4.04109 4.3476 3.81634 5.86266 1.50138 1.05649 0.629237 1.14218 0.996125 
1.30668 -6.61779 -8.33421 -8.48707 -8.82815 -8.44241 -8.93355 -8.59248 -9.03127 
-8.93107 1.419 0.969903 -0.554538 -0.670585 -0.256616 -1.17159 -0.215025 -6.32496 
0.821904 -0.613959 -1.53389 -0.546786 -0.653964 -0.625821 -0.523669 -0.00512596 0.00911502 
2.89126 0.0462617 -18.6986 -2.52422 -1.94593 -19.6846 -23.8071 -22.4058 -18.2833 
-35.6309 0.618835 -16.3475 1.57337 0.583673 0.805063 6.98332 7.95597 6.66569 
7.4961 6.9294 -2.88271 -5.81749 -3.74891 -0.00875994 -2.28762 -2.79625 -4.72638 
0.0972938 -21.2596 -19.6388 -23.0926 -26.1529 -25.2708 -14.032 -24.7917 -7.26167 
-1.03224 -2.94163 -0.974571 -0.95144 -2.79007 -4.36969 -2.86761 -1.33297 -3.71546 
-6.88763 -25.1391 -26.8321 -33.5066 -24.4574 -29.6956 -32.658 -29.9616 -31.5109 
-33.6512 -35.3762 7.39455 6.93194 6.67508 6.37996 6.63683 6.14022 6.93995 
3.00843 -0.185856 -0.925941 4.476 -0.49537 -0.569918 3.65035 1.19969 -0.0200393 
0.93541 1.84438 -0.135409 0.24911 0.325105 -6.85361 -7.22904 -7.84122 -7.56292 
-8.08503 6.70165 -35.9115 -35.0308 4.39801 3.72866 3.614 5.50069 5.30694 
1.39693 2.56188 5.10096 3.01719 3.13362 2.30263 -28.0283 2.27455 -35.9776 
6.3938 2.91763 4.09522 4.12055 5.75958 6.34394 5.82038 4.18835 -30.8679 
-28.7922 -26.9865 -25.6625 -30.1163 -14.7018 -11.7973 -20.7332 -22.2833 -17.4002 
-21.62 -3.18234 -2.86459 -1.53948 -4.79831 -7.37744 -0.425601 -2.06197 0.813409 
-0.975989 4.5588 5.43312 2.92769 5.43128 6.32962 6.31872 -7.32429 -5.81725 
-6.77993 -7.16565 -6.97518 -7.46791 -7.43777 0.698267 2.09363 1.3337 -0.50921 
1.76635 -2.78606 -3.35424 -0.232718 -0.566546 -2.59121 -9.22714 -6.19124 -7.04785 
-8.65964 -13.0383 -4.27058 -14.9118 -10.2574 -9.54487 -16.3719 -14.8422 -17.0122 
-17.2927 -20.9068 1.18805 7.35732 -36.7394 -16.4678 -5.86816 -18.9405 -14.3265 
-10.7116 -23.0947 -2.85331 5.90029 6.45591 6.61173 6.0687 -25.0231 5.93904 
-3.47322 -3.26847 -2.78098 -7.39599 -6.07138 -8.35802 0.314658 0.954592 -3.09282 
0.990868 0.583729 2.94923 4.47292 1.11402 1.53107 2.98402 4.92854 4.75875 
-4.67921 -6.58595 -4.73065 -6.23714 -4.84217 -5.78791 -4.50475 -4.78705 -2.66941 
-3.44532 -2.46861 -7.18517 -7.60569 -5.07881 -8.66375 0.654011 0.452186 2.68457 
0.775392 4.24194 4.44971 -0.879564 -0.90075 -0.943483 -1.56148 -1.53191 -1.45411 
-0.728468 -6.77092 -7.17561 -7.91624 -7.12391 -8.21928 -8.13797 5.79669 5.68155 
5.91534 5.49962 3.33025 -36.0883 4.31887 4.96087 5.00911 5.71951 3.89308 
1.26955 3.73751 4.64157 4.71668 3.7353 1.33639 3.64436 5.26829 -0.99363 
3.15913 5.04931 3.30375 2.69358 0.799102 -10.5253 -8.12337 -4.99002 6.15209 
1.9855 -4.53961 -4.02974 4.27808 1.13932 0.222905 6.70248 7.46796 7.88422 
-15.7721 5.24176 5.96246 5.25064 -31.5377 -8.00821 -29.8374 -0.645451 -1.75604 
-1.54662 -5.3046 -0.531421 0.0206804 -2.4887 0.084628 -2.24125 -0.0659681 -0.0424883 
-3.27649 -4.0113 2.40339 -1.84987 0.154495 0.763055 0.257546 0.948718 1.30936 
-1.43839 -2.11585 -1.2341 -1.21367 -1.74234 -1.59158 -1.71151 -0.967598 -15.4468 
-4.92461 -5.42768 -5.23479 -6.22896 -1.63215 -1.383 2.56488 6.77118 5.15266 
2.18852 -2.76351 4.25277 1.19128 0.883053 1.57605 -0.356748 -0.334079 -2.30443 
-2.02595 -31.5285 -47.1282 -42.5841 2.17155 3.08492 2.30944 2.55421 2.12237 
2.30199 2.00399 7.06173 8.15869 8.13735 7.69219 -8.5194 -9.35285 -7.89356 
-9.90592 -12.5437 -12.3147 -12.7422 -19.5592 -8.6082 -12.692 -8.27535 -6.77623 
-8.95769 -10.5214 -11.5695 -12.3038 -17.2349 -15.8322 -13.0829 -11.7603 -33.4827 
-3.59598 -2.44519 -2.29348 -2.41515 -0.983713 0.438917 -1.55462 -1.08587 -1.52918 
3.60505 -5.73963 2.22286 -5.19122 -8.29515 3.89332 -49.01 -0.126979 4.59623 
0.649415 -1.35218 6.74223 7.39491 7.2394 -9.6996 5.99327 6.32487 6.88823 
6.56343 -5.95275 -5.99228 -8.74682 -6.91183 6.02371 4.49505 6.06842 5.82315 
6.37008 6.01414 5.91174 7.34516 7.15949 7.06971 1.91023 -3.31213 -0.564761 
-25.0652 3.65489 4.19298 2.55871 1.49236 2.00585 -7.30149 2.08233 0.95419 
2.72378 0.637558 1.96566 2.62253 3.09912 2.43447 -3.21567 2.43759 -3.24966 
2.78564 2.09697 -1.89943 -4.177 -1.21632 -4.08492 -5.71473 7.29704 7.08826 
6.60505 6.64786 2.79942 3.05123 3.27307 3.02126 3.18652 -32.8026 6.34901 
-0.300872 5.30937 1.06507 7.58138 1.8835 2.38107 2.94916 6.28148 2.62702 
3.48018 -3.52438 4.32628 5.04106 3.14581 1.13174 -11.1214 -9.51854 -9.45144 
-10.6578 -11.345 -13.054 -8.33668 -15.8311 -3.6821 -2.63528 -1.67063 -1.44422 
-0.213238 -2.25783 -0.90385 -0.955692 -24.6258 -22.8228 -24.0162 -3.49492 -4.51034 
-5.36234 -3.70928 -7.04925 -4.33657 -2.12568 -0.109789 2.24707 -0.621882 -2.91873 
-3.23384 -3.67728 3.37504 2.49784 2.04784 2.34596 3.76352 2.21759 2.18887 
1.04328 5.17725 7.31153 -19.2297 -19.9457 -7.76381 4.82267 4.30205 2.64466 
1.88842 4.96997 -0.267723 -0.533606 0.461085 -12.3047 -4.8473 1.74705 3.42953 
0.930852 0.526135 0.665849 0.400545 0.942472 1.27841 1.10476 0.878121 -45.7337 
0.78463 -1.2131 -1.54412 -1.03516 -0.443439 0.0653408 -0.833043 -0.498353 -0.87077 
-0.300869 2.09574 2.23911 2.15705 2.25775 3.84848 -4.5794 3.90821 3.90362 
3.96841 4.27711 4.21691 -13.9565 4.54967 -3.55837 -14.4792 6.94816 -0.0566656 
0.109698 3.94134 7.46476 2.50395 -25.9574 -23.6909 -17.7951 -6.82852 -8.16929 
-29.7183 -23.6301 -27.0453 -26.0086 -29.4238 -10.9787 -9.35302 -11.7927 -10.8555 
-10.9967 -0.663493 -8.41962 0.737724 -0.79488 -0.441144 -0.770175 0.901391 2.23415 
-0.136506 1.29145 2.19883 4.3194 -7.86674 -7.53012 -6.88905 -7.02815 -9.3913 
-0.142981 -7.20671 -7.8238 -8.03813 -9.50754 -1.77164 -2.73475 -2.03215 -0.94097 
-0.190959 -48.9489 -2.29895 -3.66089 -2.22188 -3.97064 5.71966 -1.88482 -7.72113 
-7.32168 -8.27159 -8.19166 -7.98953 -8.64517 -7.99002 3.35919 3.3667 3.43491 
3.4274 -0.398958 0.188687 -8.3506 -6.42185 -0.572183 -3.80276 -4.0588 -4.20521 
-8.64685 -5.17416 -4.21411 -2.39623 -8.16156 -4.04773 -7.13921 1.31552 -10.4927 
-9.86254 -13.4546 -36.6028 7.95139 7.81142 8.07427 8.19828 -0.960572 -1.17826 
-1.25249 4.60185 0.288868 -0.318955 -1.2012 -33.341 -22.776 -17.7567 -9.12976 
-15.4231 -16.6081 -19.6565 -22.9808 -19.2652 -8.09784 8.19611 -0.224282 -10.2844 
-9.57924 -9.10153 0.00831974 4.73381 3.81059 3.42604 5.63914 -0.79473 4.22529 
0.107324 6.46074 -1.17992 -1.79297 -1.73412 -1.88594 2.6524 2.77706 2.18635 
2.80886 2.66301 2.39603 2.21941 -2.40329 -6.17528 -6.73852 -6.24235 -7.15901 
-7.39788 -5.83969 -4.98793 -17.0302 -19.323 -14.3148 -15.4449 -16.4684 -10.3027 
-18.9554 -8.27907 -10.6213 -9.31614 -10.6854 -11.9906 -27.4521 -7.18734 -39.9305 
-39.6936 -31.4135 -29.5325 -31.2894 -43.1439 -16.7893 -16.4121 -33.73 -29.8561 
-42.5352 -4.17377 -4.85049 -6.50861 -6.10456 -3.56217 -44.4039 0.661922 0.908343 
1.02182 1.33659 -2.39707 -1.38979 -3.87979 -2.17366 -10.431 1.31604 -0.245988 
-12.4725 -13.1435 -12.6589 -10.5833 5.33375 -1.53665 4.64294 4.51953 -2.82266 
4.61396 -8.15433 -11.254 -10.9404 -10.5929 -7.92714 -5.17481 -10.0504 -3.22505 
-3.5331 -3.42652 -3.59326 -4.17406 -3.70526 3.6716 6.08965 2.37945 5.61607 
0.710766 -0.657701 5.33774 4.14948 6.18354 5.86778 4.61404 3.57383 3.71079 
3.08307 2.55573 2.29643 2.79402 0.832639 7.30665 7.2861 7.65747 6.77307 
-30.0802 6.97263 -7.08737 -1.20481 0.400633 2.79741 0.305315 -34.0208 -32.5559 
-1.49461 -1.49271 -14.4172 -10.0713 -10.0724 -9.72704 -10.3071 -10.6524 -4.98768 
-5.05732 -5.47631 -30.7989 -4.30448 2.26692 -3.40881 -7.78214 -5.1376 -13.9243 
-12.7322 -14.8408 -14.006 -15.817 -14.6415 -4.00057 -4.4571 -4.30714 -2.3524 
-5.13324 0.886228 0.947318 0.010414 2.46526 -2.85206 0.789661 -12.3854 -0.692154 
1.18402 -7.78121 4.36618 -8.00446 -35.6735 -27.9269 -35.6772 -33.8003 0.498299 
-30.0242 -2.47151 -1.91113 -0.768851 1.20455 3.45755 2.664 0.667556 -9.37794 
-8.86857 -9.44442 -7.20069 -8.97571 -6.77129 -3.98925 -42.6704 -42.1592 -40.4258 
-16.0752 -7.2771 -8.25248 -8.87408 -8.44347 -7.5057 -7.6719 -8.93051 -5.55369 
-4.65297 -6.37873 -9.69721 3.24834 5.65511 -50.6732 1.8552 -46.0868 6.31813 
-0.565767 1.67747 -4.81708 7.6455 5.79872 5.86403 5.40909 6.94629 5.8189 
7.43645 -27.1558 -28.8756 -34.1104 -32.592 -32.3906 -34.0771 -37.6151 -7.32254 
-10.7286 -12.6241 -12.0036 -1.39516 2.421 -1.97106 -2.5839 2.50174 2.43936 
-9.33404 -6.36203 -20.2994 -20.0209 -7.69871 -4.71815 -0.659253 0.0913027 -0.499969 
-0.309856 6.84465 -0.510358 -24.8144 6.73027 6.07781 -6.88893 -2.95895 -9.56012 
-4.97932 -2.5512 -2.94016 -3.96996 -29.3707 -10.1372 -9.6316 2.3193 -2.22575 
0.184107 0.572586 -0.00733546 -0.00659557 -1.23905 7.91343 0.457777 1.4866 0.358246 
-0.558162 -4.62982 2.48416 -4.14318 0.599828 0.26144 -2.59038 -0.22094 -19.1689 
-15.1893 -16.1158 -13.8304 8.33845 -9.03578 -9.45524 -31.6631 -4.94936 -4.59504 
-6.66492 -6.5725 -5.80182 -5.98918 -11.1529 -9.67173 -7.46542 -11.4798 -12.4623 
-10.6003 -5.29556 -9.83203 -8.48744 -4.40345 -7.09377 -8.23128 -7.81032 -5.26093 
-5.50089 -6.3145 -5.57666 -9.31295 -9.12555 -10.8494 6.3961 5.97716 5.61065 
-5.36461 -8.95194 6.84938 4.71308 6.06172 1.21586 0.541553 -34.9374 1.21258 
0.944537 1.01991 0.693953 0.887526 3.38138 -30.0889 2.92754 -7.9421 2.62246 
5.7651 2.23616 2.92161 -2.0889 1.20996 -1.05089 -0.718773 -0.17988 0.261251 
-11.1327 -0.0258221 1.01469 3.34409 -4.23707 -8.1189 -5.95681 -8.98437 0.121584 
-0.00805475 0.187856 0.247989 -27.4302 -29.3753 -31.5761 -17.1896 -14.4804 -13.6066 
-25.1298 -28.723 -20.937 -14.9662 -41.291 -37.4257 -44.2239 -40.3586 -45.8573 
-9.14196 -15.6688 -9.14459 -8.59924 -7.51744 -16.1526 -14.115 -19.0555 -19.1798 
-14.0558 -15.3454 -2.06246 -3.70491 -2.64627 -3.06143 -0.485067 -0.452266 -1.49572 
-29.3351 8.01006 8.03898 7.83481 -27.328 7.91931 7.74024 2.1773 2.40872 
1.91935 2.15076 1.79495 1.58145 -42.5753 -38.1276 -36.2146 -40.4218 -40.3823 
-42.4526 0.540259 -7.81239 -10.7458 -13.0547 -9.34111 -8.19118 -14.0966 -12.2007 
-1.05113 0.734852 0.566543 1.12078 0.952469 -5.4568 -4.90927 -4.30483 -4.57156 
-5.20678 -5.21434 -43.3234 -1.97529 -9.10604 -9.20499 -6.07744 -5.2807 -4.50437 
-5.30111 1.23728 2.55845 3.20238 3.46929 2.85534 2.71439 6.89287 6.15229 
7.63238 -31.9587 7.2873 5.42244 7.50434 -6.53426 -38.5028 -6.02535 -7.06976 
-1.89808 -5.45856 -5.82124 -4.92478 -35.4586 -35.8505 -34.1487 7.11728 -26.8946 
-30.4241 -1.06508 -0.907605 -0.263575 -0.858498 -2.33161 0.0800771 -0.0366902 -0.852889 
0.0935879 -1.68372 -0.572126 -35.2265 5.22574 6.78375 6.4456 6.87773 6.69977 
-12.8546 -4.14512 -5.94405 -5.71096 0.330907 0.337452 0.159705 0.408203 2.21755 
2.19209 -17.0842 -15.8547 -42.3542 -9.80714 -8.08716 -11.5921 -3.65451 5.30837 
4.59702 2.56778 4.65711 5.49834 6.04801 4.7621 3.19994 5.94523 5.39538 
0.763679 4.03945 1.64111 2.45506 2.00932 -44.2531 2.48165 -1.89574 -3.91908 
0.773669 2.63458 3.11393 -2.78009 1.21724 -2.42378 -15.9284 -21.8176 -22.0962 
-3.00982 -3.80973 -3.70744 -5.04096 -2.94678 -2.08126 -2.53343 -2.2615 -2.82396 
-15.1034 -20.4457 -17.8184 -14.7738 -22.33 -23.7929 -25.5159 -10.4883 -10.3106 
-10.6242 -12.1548 7.25982 5.18629 6.99805 4.49791 5.87789 -8.6632 -5.49696 
-5.8723 -7.82897 0.980345 -1.03725 2.65305 -4.31632 4.08463 2.49445 2.51741 
1.92053 -21.1897 6.30166 -23.5905 0.668724 -5.46485 2.43452 -0.0233739 -0.277233 
-4.28373 -31.3451 6.66912 7.88407 3.55701 5.94182 3.02815 2.90892 3.52543 
0.222818 4.16264 2.84563 1.34704 -1.28212 -33.4745 2.51433 1.79922 2.32424 
1.36464 1.28305 1.10373 1.17106 0.991732 6.92898 -15.8981 -5.15006 -4.44053 
-4.97542 -6.13699 -6.39276 -7.22462 -6.52071 -6.77647 3.21126 -2.76614 6.43545 
5.92901 -1.73767 -33.8394 -6.7038 -7.75012 -8.91276 -20.0423 -51.1186 -5.79855 
5.08921 4.22531 1.25091 5.15335 5.82217 2.8776 4.81528 4.79213 2.61435 
0.0444489 -14.6545 -15.9451 -9.43843 -13.1961 -13.0616 -12.6062 -13.4425 -3.32572 
-1.55195 -0.716152 -13.5477 -36.0678 -37.5867 -36.6498 -25.2356 -16.3424 -7.93032 
-10.016 -11.1983 -10.0749 -11.1232 -7.65906 -8.92219 -6.8972 -7.09723 -6.94781 
-23.0781 -46.3705 -32.907 -20.8531 -17.0318 -8.09768 -11.1104 -11.2551 -9.84761 
-11.4091 -8.08969 -8.26135 0.511943 0.0498205 -0.141622 0.0808751 0.358169 6.77729 
7.13019 6.8541 5.80918 -0.636523 4.04461 1.21315 3.90694 -0.124487 3.10755 
2.32839 0.661569 -11.586 -0.0429255 -34.2937 -33.5557 -37.6846 -44.0169 -34.3277 
-30.5463 -37.7979 -3.05906 1.48588 -7.40886 -8.59415 -4.83732 -3.46836 -4.85331 
-4.89646 -1.38351 0.213475 -20.6313 -20.5211 -20.5362 -21.7713 -3.08421 -8.71218 
-9.29865 -12.5448 -9.48258 -8.98863 -10.5076 -11.9664 -10.2721 -12.9925 -14.3136 
-1.02396 6.10988 5.91326 5.90515 6.10189 2.22474 5.16895 5.44435 -13.5818 
-14.2135 -15.8221 -11.895 -15.0227 -13.6258 -14.5456 -2.35918 -24.2085 -22.759 
-21.6991 -27.5775 -21.1698 -29.9555 -21.8039 -21.0391 1.19168 1.19649 8.29677 
1.46254 2.55385 1.7116 -7.57731 -10.6578 -10.2935 -14.7278 -11.8872 -7.29083 
-10.4389 -8.34344 -11.4711 -6.99765 -9.03165 -23.716 -24.4114 -19.9536 -7.80631 
1.8899 1.90827 2.11567 2.03171 -11.0508 -14.1664 -14.3632 -11.2101 -3.42016 
2.67896 1.67671 -0.8474 3.44406 0.924461 4.5411 2.34851 -7.95361 -14.108 
-14.9178 -12.3717 -20.2394 -7.3878 -9.12868 -11.2348 -1.31959 6.90647 0.58404 
7.06071 3.39129 3.5124 3.19545 6.68352 6.2046 -26.8919 6.463 -28.7886 
5.25821 -1.20254 0.112852 0.484689 -6.15967 -7.91924 -3.2211 -3.54836 -7.4493 
-7.37548 -7.54099 -2.68566 -3.18899 -3.15173 4.12014 4.79464 6.34362 6.68138 
6.12221 7.53493 7.36685 5.99725 0.179821 -0.743866 -1.13697 -1.57358 -0.525919 
-27.4822 0.858941 -27.6073 7.67525 7.49871 7.70752 5.94075 6.87903 2.95684 
2.81149 2.49163 2.98307 2.90347 2.68428 3.08637 -11.8054 -5.74255 -11.3328 
-30.6775 -8.37652 -8.89439 2.10405 -1.02797 1.01437 -6.69912 -3.43942 -1.36582 
2.09337 0.750236 0.551157 -4.17164 0.970916 -2.87149 -3.44225 -1.37865 -5.02047 
-6.35225 -6.52601 6.81066 7.16301 6.81113 6.42687 -8.01789 -40.8658 -7.30484 
-8.13761 4.59294 -40.1231 -19.9596 -8.05248 5.00893 -14.2224 -2.93111 2.93889 
-12.744 -10.009 2.95376 2.95597 1.60613 1.74686 3.09449 -3.43759 -2.76062 
-2.14428 -3.15741 -3.21342 -3.04591 5.99065 5.2981 1.3903 5.47473 6.61395 
6.16893 4.78983 5.06609 5.07554 4.91076 4.75501 -5.30693 -2.20814 -10.3948 
-11.1584 -2.84075 -4.24327 -10.8351 -7.00517 2.79775 3.43743 -8.46276 -1.12709 
-1.2162 6.4834 5.86451 5.09602 6.44153 -40.6226 6.92119 6.06538 6.79321 
6.43831 -1.35461 -1.14481 -0.808841 -1.0076 -1.22844 2.06563 -2.19479 5.59469 
2.86914 3.81859 4.31814 -5.92766 -49.2953 -47.7844 -47.6294 1.85933 3.85328 
-1.33559 3.88033 3.40423 -41.9598 -2.05003 1.28448 2.05962 -0.826062 -0.752243 
7.45676 -0.687297 7.81687 7.65353 -28.021 -2.55107 -4.08581 -2.92532 -11.4932 
-4.32738 -14.2866 -2.9209 0.309228 -1.7769 3.26409 -0.0274302 -0.58154 -6.51816 
-7.8766 -6.29553 -8.06711 -37.1561 -7.93002 1.43894 -3.85738 0.960648 -3.48653 
-1.74708 -4.41769 -4.99506 -4.81953 -5.23553 -5.61396 -5.46462 -5.84304 -4.89276 
-5.42523 -5.37464 -5.42052 -0.816841 -0.854261 -0.895924 -0.925028 7.80635 7.70495 
7.51422 7.41282 -0.788053 -1.05033 -0.136533 0.414853 -0.61107 -0.808352 -0.621915 
-0.644772 -0.537845 2.42469 1.42998 -1.99292 1.07772 1.62083 0.684166 2.87366 
-10.3734 -10.5584 2.18538 -6.74947 -8.91174 -21.163 -24.5159 -17.2751 -22.2767 
-23.1314 2.89137 2.2453 1.99168 2.64969 2.59016 -7.32206 -7.1384 -7.881 
-6.86261 -7.46321 -40.949 -7.19802 -6.08196 -5.47093 -0.823252 -0.836587 -0.916471 
-0.835363 -0.987078 -1.02065 -0.939768 -17.483 -22.3588 -2.18663 -1.424 -0.864583 
-0.979121 -9.69452 -14.2544 -11.4591 -10.5179 -5.79979 -16.3318 -38.0574 -37.797 
-16.942 -18.4369 -16.7177 -2.4997 -2.35635 -4.18542 -5.04696 -6.82108 -5.51968 
-4.53611 -9.93306 -2.43984 -3.52731 7.71967 7.51943 7.65442 7.4321 6.37704 
6.49804 -0.76334 -1.95592 5.83 7.95203 -2.13143 -1.93609 8.0176 1.81047 
1.60193 1.56691 1.76377 1.97087 -21.4997 -23.3473 -29.6163 -34.725 -26.3707 
-34.7342 -29.5581 -34.3463 -36.9697 0.172632 4.36156 1.33845 -13.253 -0.467327 
1.77864 2.69841 2.88791 2.14632 1.42571 1.9915 -46.5252 4.99108 5.04897 
5.53091 5.36406 6.25717 -7.60255 -5.7102 -7.03775 -8.17517 -10.9529 -10.3635 
-10.0452 -7.90746 -8.89093 -5.70293 -1.83794 -6.99529 -10.7763 -3.56045 -7.88284 
-7.84062 -8.00473 -7.55492 3.50153 -9.40585 -10.2248 -11.3764 -11.3992 -11.1009 
0.785007 0.320739 4.96156 -1.75131 6.63437 3.88604 -15.9419 -9.10691 -18.4814 
-10.9501 -7.89599 -11.1583 -9.22649 -7.13441 8.08542 2.16757 -8.49551 -2.33077 
-6.83701 0.374326 2.83714 -10.5512 -0.834122 2.31371 0.832941 3.55061 4.90534 
0.999305 5.32884 6.01844 1.6179 6.1343 3.52756 4.16924 2.25212 2.64865 
0.479681 1.17013 7.08655 -18.6312 -19.2232 -16.7415 -22.2788 -19.9474 -21.8394 
-20.0367 -23.3821 -26.9996 -17.8216 -5.49332 -5.59726 -5.50991 -5.21241 -9.47553 
-10.5688 -8.99545 -10.0748 -8.23042 -6.22493 -7.65047 -6.37643 -5.49675 -0.326876 
-5.81167 -21.4329 -7.30248 -13.2281 -5.95409 -6.69274 -2.63347 -6.71634 -5.78561 
-6.50579 -38.094 2.08325 2.09924 0.524742 0.256346 -0.555651 -43.8201 -0.829882 
-42.4928 -44.0317 -3.5707 4.40167 5.45403 5.71161 -37.2387 -10.7582 -11.2574 
-14.0126 -10.764 -8.4035 -13.3616 2.48052 1.98 2.16811 2.29905 1.99551 
1.96801 -0.892923 5.80824 -29.2816 2.82844 1.44432 8.4649 -32.9393 -27.7781 
-28.2481 -8.21211 -8.27819 -8.57592 -10.0015 -12.939 -8.0103 1.16693 0.709497 
-0.226214 -7.45903 -7.93445 -8.16724 -7.97392 -6.60247 -4.71308 -1.89797 8.28283 
-1.02205 -2.62228 -2.01885 -2.906 -2.97846 -2.20609 -1.51385 -26.5829 -23.1039 
0.898797 -2.04486 -2.91349 -34.2492 -36.3731 -9.09312 -6.86229 -8.7106 -9.21317 
5.72427 -25.5476 -2.3711 4.52304 -7.97877 -0.447637 -21.8785 -20.2235 -20.1225 
-19.4181 -19.3171 -20.1166 -14.5062 -12.5442 0.975892 1.15342 0.986358 1.16389 
-8.45924 -9.02884 -12.1189 -11.254 -11.3615 -8.79089 -13.0682 -4.91184 -2.70974 
0.0294734 -2.74129 0.259172 7.91844 -23.3326 -18.2948 -6.13719 -18.9749 -31.5194 
1.68688 0.92304 1.13406 1.36428 2.04653 1.30409 -10.2396 -9.09081 -10.7264 
-10.1158 -10.8676 -11.6732 -32.2986 -30.1073 -33.2589 -31.617 -10.0325 -0.199809 
-11.8469 -10.0658 -10.7034 -11.6623 -11.61 -12.5249 3.01729 -12.1534 -12.8211 
-12.0614 -10.201 -10.2859 -10.6579 5.79667 6.19594 7.31734 6.9949 7.09914 
6.5587 -30.4834 7.01636 7.18018 -29.4658 -2.83502 1.27742 0.362265 -4.47853 
-3.94047 -3.95072 -3.34482 -3.45632 -3.46657 -31.8226 -33.4594 -37.3911 -29.8775 
0.0708746 -0.104083 4.77997 0.966262 1.42307 -0.613965 3.05975 3.48147 -1.88234 
2.37643 2.29738 1.98431 2.15322 -7.85688 -8.04113 -12.9608 -13.4594 -15.3336 
8.46194 -6.01735 8.19319 8.11624 -3.0781 -22.6118 2.57681 1.01686 -49.032 
-17.343 -18.6084 -16.5935 -19.1848 0.494116 0.275476 0.395362 0.614003 0.989486 
1.09458 2.03294 2.24849 2.14166 1.19168 1.70842 -28.3303 -22.3641 -20.4543 
-18.0619 -8.33945 -15.9222 -1.37413 1.60413 1.87016 2.65305 2.68649 -6.77955 
-6.96061 -4.41663 -9.84162 -31.2953 0.817797 -6.52036 -5.94617 -31.9665 -1.56091 
-6.5599 -1.46579 -1.44438 -1.29413 -5.05179 -22.1827 -25.699 -4.99753 -5.73609 
-12.004 -5.92234 -8.14255 -3.4746 1.99353 1.60352 1.27226 -2.10728 2.45813 
5.72933 -0.456988 -0.502764 -0.409414 2.99519 3.02039 -15.9485 -0.288195 -31.6666 
-14.2133 -1.51726 -0.833835 -20.9137 2.94059 4.16018 -2.5609 4.40053 -1.78985 
-2.05506 -23.6628 0.0611061 -0.337959 -0.0533792 -10.8738 -11.271 -10.5293 -11.2832 
-11.2312 -2.31194 -5.052 -6.55206 1.29305 -13.0914 -13.2303 -11.8043 -11.8808 
-3.40508 -7.1322 -6.57291 -5.97986 -5.5041 -6.65947 -4.57209 -3.1838 -6.42481 
-6.72508 -6.89183 5.08732 -1.16378 -1.17207 -1.25941 -2.96485 -2.44931 -3.91875 
-1.84497 -2.63146 -14.5247 -12.0233 -42.1983 -1.43341 -13.1863 -29.2679 -5.18999 
-2.81631 8.31435 -2.03044 -4.69561 -5.32424 -2.28486 -7.03177 -2.93783 -2.02916 
0.925185 1.42125 0.109319 0.167014 -36.2765 0.239765 -36.5682 -13.2078 -21.545 
-1.67118 -19.5362 -3.14441 -14.7801 7.06898 4.65742 4.79637 1.42209 -4.94844 
-14.6725 6.18653 7.06556 3.35687 3.15187 3.95462 -35.9705 -32.5649 -15.1323 
1.51815 -4.27775 3.2167 2.79644 3.88861 -5.79037 -4.56444 -4.34353 -6.49445 
-6.64146 -6.38624 -6.75987 -2.01061 -2.45184 -2.59888 -2.71701 -2.4741 -2.59224 
7.28759 6.95564 6.7083 -6.82326 -44.4568 -5.6302 -6.61039 -1.96702 -2.53017 
-4.92088 0.436125 4.47146 -6.43717 0.141511 0.556956 -43.476 6.29409 -1.80713 
0.320027 -1.81591 -1.64748 -1.78435 -1.10093 -0.890536 -0.930265 -1.0021 -15.0794 
-15.0801 -14.8635 -14.3346 -15.2456 -15.1136 -13.5081 -13.8242 -13.7682 -26.6122 
-24.1503 -20.7625 -22.5877 -6.19247 -18.6723 -16.3506 -35.5936 -30.5202 -31.6042 
-26.4553 -27.8279 -34.8726 -33.9744 4.48244 4.40823 2.05355 3.85285 3.65824 
-15.0214 2.96853 4.01348 -39.7011 1.33697 1.87983 -0.0629049 5.11827 5.33365 
-0.146895 2.7622 -0.0847815 -1.5501 -0.245684 0.574825 2.78321 2.61032 -2.21343 
6.45292 6.22907 -1.48028 -1.32261 -31.6186 -17.133 -17.5102 -15.5736 -16.1521 
-16.3889 -0.0013864 6.26049 5.78294 -7.8983 5.7613 -16.2894 -20.8995 -23.1601 
-24.0825 -22.0338 2.7879 -0.356016 0.0265276 -41.9326 0.695995 1.0688 3.491 
1.83703 -0.285144 0.932497 0.770876 1.13653 -11.4944 -13.215 -12.3469 -12.6194 
1.70673 -11.3517 1.52958 2.08551 2.62404 2.54403 2.64349 2.56348 2.9752 
-15.7541 -16.8543 -20.0434 -16.6763 -19.5392 -21.1292 1.37276 -1.77889 -0.0166573 
-7.2842 0.528335 -0.653097 -11.131 -11.0892 -10.2517 -8.41674 -9.36969 -9.3593 
-3.27103 -4.17158 -0.393908 -0.86842 -17.1039 -24.9312 2.51072 2.68415 1.77081 
2.31509 2.05811 1.14258 -7.91881 -8.02862 6.13984 6.05543 0.526823 0.347182 
0.284544 0.767525 -0.784132 -0.329242 -0.0474707 -0.386364 -0.293578 -0.722982 -0.742866 
-16.2226 -3.76746 -2.38171 -7.34898 -8.10791 -7.94044 -13.2279 -16.546 -10.8694 
-14.1875 -18.6374 -20.9918 -13.0476 -14.4879 -36.7847 -31.9236 1.71829 1.86432 
1.70146 3.84993 1.94885 3.6791 3.48359 -38.2077 3.44455 3.14619 1.86682 
-0.0700833 1.53289 0.757219 1.09611 2.35023 -0.142274 -0.41866 -0.331546 -0.265321 
-0.240685 -0.17732 -17.3419 -16.274 -15.4629 -1.75561 1.05258 1.01396 0.75104 
-2.80807 -2.91138 2.69583 0.709659 -4.70084 2.06885 2.13182 1.35668 1.63197 
7.91049 7.93184 1.68508 1.97066 1.77107 -3.77239 7.31405 -5.72545 -14.2206 
-9.14861 5.93048 5.92929 5.64965 5.88523 6.16487 7.20323 6.92696 2.44441 
4.59878 -41.1261 -11.5508 -15.6125 -10.2446 -9.47897 -12.9208 -12.4855 -34.4073 
-28.3935 -35.8004 0.410835 -1.04984 1.03386 -1.13283 -1.81818 -26.3297 -26.6549 
-31.316 -23.5772 -36.0727 -25.0499 -22.951 -8.55286 2.07718 -4.94801 -6.12448 
-5.49044 -18.9707 -18.2325 -17.2647 -15.0191 -15.9869 -12.3381 -10.4954 -21.3655 
-24.4158 -13.1322 -9.43299 -9.06747 -9.98394 -22.1137 1.76126 1.64475 -42.9439 
-3.22812 -23.7621 -9.83351 -20.659 -10.8889 -12.1686 -13.1949 -14.6831 -42.9696 
-32.9422 -1.95088 0.118082 -0.470511 5.56951 6.57154 6.37827 6.53438 6.34111 
-4.40561 -5.15453 -9.82838 2.79162 -15.1278 -2.59688 6.57626 7.3681 4.3815 
3.64777 3.85261 0.551372 -1.01926 -15.3366 -12.8682 -14.3253 -10.8553 -11.5397 
-13.4707 -14.8037 -14.2094 3.88052 -29.8766 1.14281 2.65484 -0.795364 2.69813 
4.4225 5.19269 -2.10724 0.104369 -30.7767 -8.45894 -34.9421 7.09344 4.52727 
6.3202 6.43703 5.79802 5.42037 5.33552 7.25633 -7.31281 7.09502 -47.256 
3.69301 3.93824 3.49498 -43.9377 -1.29943 -44.8742 1.93651 -1.50517 0.624392 
-0.524835 0.809035 0.686148 -1.01936 -1.58134 2.38979 0.744272 -1.10702 -9.67392 
2.21264 1.23668 -43.6473 -20.8668 -14.8188 -11.5762 -7.07237 -9.96457 1.37864 
3.26411 3.69199 -2.65678 -2.65316 -1.00835 4.08198 -0.0976671 3.57983 -0.135197 
4.27298 -3.76085 3.34641 4.34757 5.63665 2.97859 -4.59059 3.19165 0.567762 
-0.357301 -0.489235 -0.702223 -0.57029 -0.70441 2.48533 4.49766 1.67641 2.33389 
-47.2509 3.13362 -15.2843 8.33547 -23.3369 8.25851 2.26803 -22.935 5.91247 
6.93246 5.65768 5.19795 -7.80191 2.33301 -40.1418 3.18239 1.81479 3.76784 
-6.83528 -7.59414 -1.89054 -0.738984 -40.2492 -36.1062 -5.5284 -6.66219 -4.91315 
1.66123 2.95423 -42.7519 1.25072 4.69352 4.31094 2.38469 4.34811 -5.32019 
4.07467 5.36417 4.07345 2.22252 -7.28487 -0.199195 0.511182 6.80803 -33.8383 
5.6032 4.75902 5.0783 5.99527 5.771 5.93499 6.53753 6.32383 6.51308 
6.53284 6.44814 5.74546 6.13932 4.75244 4.21654 -47.8072 6.73982 -38.7776 
-2.71391 -3.81126 1.08563 -26.1167 -11.1332 -7.19584 2.18372 2.04055 2.19175 
2.31153 1.80883 1.94544 5.50023 2.68646 3.47326 -15.556 -6.61797 2.6223 
2.20555 -3.8668 -10.203 -11.4172 -9.7159 -8.84636 -3.50727 1.6588 7.71214 
0.927869 5.15538 0.841927 -31.1146 -5.10921 -11.6835 2.46671 2.43013 0.380959 
3.29924 -0.0984424 1.67639 1.62634 -1.54051 2.90833 2.59858 -8.88181 -6.06965 
-4.10524 -22.0156 -30.7688 -5.73784 -4.1699 -4.11252 -5.62281 -33.6151 0.281675 
-0.60678 -3.81927 -30.1091 -1.02105 -8.05595 5.10345 -8.14837 -7.99528 3.06181 
5.12659 5.83248 5.29911 2.9572 -1.84969 5.45787 -3.07111 6.00441 4.04882 
2.77358 1.85079 -5.38245 6.05531 3.06126 1.75122 -31.0836 -5.54595 -1.32888 
1.67 8.37974 4.32225 2.17758 2.24022 4.98953 2.58724 2.13585 2.74888 
4.64336 3.11951 -0.0610126 2.31986 -3.89007 -3.11721 1.98475 -6.22647 -3.49631 
4.01828 -4.63671 -12.6441 -2.76859 1.43683 -1.00926 -1.10548 -0.404523 -8.48441 
-15.6235 3.68315 -2.48205 -14.2826 -2.07339 -10.8096 -0.47663 -1.7496 -2.24403 
-10.7604 -13.5375 -9.22758 -3.14921 -1.84789 -1.77365 -0.926728 -1.53422 3.35997 
-7.74625 -1.96808 -0.196204 -2.60043 2.23981 2.08051 0.0423537 -2.92717 2.04846 
2.13343 -19.0837 -4.08219 -11.8255 -6.37022 -9.61097 -9.34245 -12.457 -14.188 
-18.3888 -4.6958 1.40421 -10.1607 0.853662 -12.3165 1.35175 0.675802 -7.0994 
2.09402 1.9838 8.07048 0.954128 -16.0149 -16.7489 -4.89002 -6.64489 -9.59692 
-10.8009 -6.4623 0.761193 -21.5838 -17.3654 -2.8564 -17.566 -3.34692 -37.0527 
3.90264 5.29991 3.08459 -4.92609 -7.40466 -3.90924 -3.42278 -0.819352 -12.6547 
-11.321 -22.0586 0.653793 3.10858 0.508856 2.2306 0.706752 1.79612 -45.0338 
0.523134 7.52854 6.94869 -24.9063 -15.9497 0.997596 7.43004 6.34943 6.3273 
6.81367 6.92929 4.09016 5.02993 -5.24742 -19.6453 -5.29057 -19.3134 -1.75625 
-13.6423 0.664933 -1.5005 -0.504648 0.189452 0.512974 3.08516 4.77133 2.01687 
1.81341 1.73842 2.98113 -32.2438 5.33512 -47.7912 -1.44317 -22.5364 -25.6873 
-15.6781 -15.3484 -1.32828 -1.39977 2.76169 0.0616195 -1.92657 0.605775 1.74202 
-36.9389 -3.22532 -31.1768 -38.4134 0.248776 2.86113 4.18251 -1.16401 5.2123 
1.67792 2.6262 5.0662 0.0102734 0.14157 -0.202431 -0.570172 0.672131 1.48841 
3.00455 2.1867 -6.40424 -13.6607 -14.2414 -13.0524 -17.8102 -16.1178 -39.706 
-2.09592 -1.51855 -18.1962 -19.2909 -21.05 -19.6093 -21.2264 -13.6207 -0.819297 
-13.6542 -12.7536 -14.1927 -13.7106 -8.25605 -10.0909 -6.11124 -2.98416 -7.688 
1.74723 2.17311 2.20299 2.08203 1.81819 2.43439 0.981599 2.09393 -43.7762 
-1.24114 -10.6873 1.87309 -9.63194 -7.34455 -16.6719 -12.315 -20.6554 -8.79 
-7.02119 -9.2931 -13.9498 -7.92848 -7.22994 -6.63839 -11.9099 -14.3217 -0.107003 
6.51748 4.91212 6.17111 -22.123 -38.3892 -27.7879 6.61515 0.365486 1.36245 
-32.9206 -0.760848 -0.637173 0.19533 0.590842 -42.2705 -1.52051 1.69389 1.81463 
-49.4108 -47.488 -41.6174 2.1956 -26.1686 -30.1074 -30.4978 -26.1037 -24.351 
-0.463032 -2.47331 -2.96399 1.00354 -4.4226 -0.777251 0.235213 -0.541869 1.16783 
-1.57724 0.257235 -14.4732 6.13385 1.68958 4.62572 5.82907 4.30916 -29.9449 
-38.7604 1.47413 2.71461 0.0427486 2.24678 2.4263 0.146707 4.82775 -3.09272 
-8.01366 3.2007 -2.40237 1.25571 -6.84333 3.73757 -6.99868 -2.17384 -5.08091 
2.45643 -2.99037 4.61448 -7.72355 -2.73041 1.31012 -3.28702 -41.9921 -3.70968 
-4.95979 -7.74007 -1.91654 -0.98225 0.285974 -0.351563 8.49152 -1.3295 -0.419237 
0.931969 -1.29925 1.01533 3.00149 -0.0187507 -4.66544 -0.0350709 -2.02659 -21.0832 
-2.29391 -2.77208 -2.40745 -2.35791 0.364521 -4.68751 -25.9255 1.80685 -0.298147 
4.18932 2.82973 3.32783 -1.38998 -0.254459 5.73247 3.18333 2.07877 7.86427 
-26.8949 5.02368 2.23652 4.19941 2.03829 -30.1091 0.0490085 0.137172 -39.357 
2.13178 5.38204 5.13584 5.47635 4.28013 4.09926 4.28557 4.7404 4.18653 
5.52555 2.73262 -5.33767 -8.44878 4.0222 2.85389 1.76043 -5.59943 -0.1326 
-9.31084 -2.77183 -11.3826 -14.2316 -10.1306 -2.98579 -7.46019 -9.1005 -9.78847 
-11.7646 -2.49836 4.82254 2.3681 2.32164 2.35286 -0.282318 -0.871728 6.68027 
6.91415 6.81925 4.91618 6.76275 6.71734 -3.74264 -25.0125 -30.0515 -6.51683 
-21.595 -3.00293 8.21169 -1.41364 -3.07001 2.20335 2.48971 1.59328 2.2275 
2.19953 0.623481 -5.70673 -27.6068 -28.9512 0.686948 -3.61387 -0.698547 8.07422 
-14.9714 -13.2337 -35.3132 2.21879 1.7967 2.11293 3.85285 -3.45599 -6.50422 
-3.32617 -3.26543 -5.58873 -23.5933 -4.62309 -3.21121 -3.79266 -3.07185 4.83273 
4.5349 5.65573 5.67578 -42.6449 0.130129 -0.401785 0.143459 -11.4674 -13.9372 
-15.2342 -10.2523 -15.5607 1.31194 -0.32989 -0.655107 -6.77721 -6.87278 -6.78909 
-6.88466 1.99419 -7.45812 3.55595 2.49162 2.39416 3.54654 3.80867 1.12508 
4.19106 8.11643 -1.00732 -9.71946 -7.58583 -10.6024 8.18424 -7.2938 -0.816003 
-10.1919 -2.37499 2.11214 5.50157 -8.08771 6.81755 -7.97745 6.53868 6.25725 
6.75644 7.0001 3.39133 5.77048 5.42542 2.04859 3.77892 0.0207682 2.22701 
-4.52947 1.53882 4.45103 1.37704 0.108734 2.2943 4.73707 3.11893 -4.28554 
-3.67637 -5.86099 -5.25182 -5.23618 -29.1079 -5.38754 -4.77837 1.45599 0.533344 
0.322742 -0.957757 -0.416763 0.836933 0.184382 -0.198803 -0.28181 0.0903907 -3.46233 
-9.25282 -7.94632 -9.28485 -2.66114 -13.7265 -8.42227 -12.5945 -11.599 -10.5735 
-10.7517 2.33942 0.329062 2.75801 -0.757477 0.890755 1.18967 1.60819 0.299703 
-46.1779 1.50509 -2.43623 -1.67527 -2.52752 -3.13384 -3.09271 -5.37511 -12.3281 
-6.02336 -3.93231 -12.8949 -7.30222 -17.2667 -14.5171 1.36115 0.729818 5.11024 
1.2773 1.19247 -25.2168 -0.593541 0.978158 0.913148 -0.345416 4.2528 3.23917 
3.66368 -31.7656 3.02629 4.8109 -33.7283 -38.2365 -3.19403 -37.3964 5.1028 
5.51031 4.79859 -6.82925 -32.3118 -33.117 -38.156 -5.85769 -5.67079 -7.23218 
-6.684 -8.24422 -8.38384 -7.89179 1.13146 1.3653 2.66564 2.23751 2.42149 
1.00872 3.0433 1.80665 -27.4641 2.27782 0.270855 5.70884 6.41378 3.27438 
8.63187 2.22988 3.75495 1.4349 2.49772 -44.9832 8.50372 -2.51452 -1.93598 
-4.46759 -2.60131 -2.89294 -0.49007 -2.74559 -26.2789 -28.3724 2.1533 2.07858 
-7.37317 8.15219 8.26576 8.2844 -0.101579 -5.04391 -7.38742 -7.23853 -1.7005 
-0.857435 -0.583623 -25.1912 -6.16179 -25.0352 2.57639 -1.12416 -0.139523 -7.06128 
2.60225 -39.029 -21.8844 4.01362 2.33799 1.62166 -1.30167 2.07861 1.63862 
6.49761 -19.9834 -25.6484 0.872531 2.47087 0.88296 -1.08644 -21.6415 0.640336 
-5.45884 -27.4425 -11.1385 -26.5951 -9.59643 -40.9327 -35.8348 -7.60712 -8.79549 
-13.9333 -12.8328 -11.9491 -6.44188 -13.7534 -13.6728 -9.32141 2.74098 5.08009 
5.77788 5.46933 1.46545 3.55586 4.05924 3.7495 2.9284 3.68353 3.96762 
4.72577 3.33148 2.99537 2.9294 3.43229 8.34733 8.56922 -31.4424 -46.1184 
-40.7772 -7.31063 3.54359 2.18382 -7.59565 -7.00847 2.35813 -5.00406 -7.26128 
-24.9839 -8.7188 -4.34895 -4.56795 -4.46741 -43.0375 -5.49601 -1.31041 -43.5663 
-5.21576 -4.76143 -5.92904 -44.0959 -5.83806 -0.506181 -7.12964 6.01233 4.07704 
5.60196 5.86606 1.80918 0.557252 6.07011 5.34415 -2.46431 6.00859 -38.5823 
-7.93725 -3.60818 -10.2265 -4.81534 -5.24748 -5.23104 5.35622 5.30599 5.27584 
4.24109 8.29683 0.907776 2.00156 5.78326 1.06398 8.37643 2.72541 3.02579 
1.52396 2.06782 -0.469045 8.51678 1.64892 -7.97499 -8.09546 -8.12865 -7.68485 
-13.7141 1.92552 1.4403 -13.001 -12.2418 2.16431 2.05785 1.50848 1.08248 
8.23252 2.37313 1.9485 3.59538 -14.9277 2.25173 -3.86073 -0.782321 -34.5972 
-1.39903 -5.75146 3.66908 3.27145 3.89576 3.98625 0.869133 1.28022 -3.08853 
-2.27215 -44.9269 -37.8797 2.39827 6.20419 3.56753 -2.79614 -20.8092 -32.5868 
6.59771 -27.1471 -8.197 -5.4761 -5.27359 -43.7681 -0.143916 0.222438 0.815837 
2.3899 -0.389546 -0.562423 1.01734 0.975063 -44.0953 -41.1617 0.261958 -40.9361 
0.532814 1.18919 0.82313 2.27627 -6.88757 -12.5304 -8.87402 1.67568 -8.68563 
-9.11887 -8.91978 -29.742 -26.3927 -23.3257 -18.4585 -27.3639 -28.6762 -23.1365 
-21.8242 -13.3505 -12.5553 -12.5511 -9.28013 1.57768 2.88197 2.7042 2.88335 
1.62064 3.93927 4.94784 -4.82642 -8.58554 -3.06742 -10.1004 -6.63968 -9.31453 
-2.521 -7.36341 -2.28841 0.866217 1.72426 1.9585 -11.1823 4.65933 0.744409 
1.23239 1.4271 -6.07246 -12.5014 6.54439 6.17185 5.86444 -1.08861 5.64018 
6.18489 -5.34056 -3.85085 -5.87194 -8.46107 -0.0787494 -15.1017 1.23687 3.54619 
-7.42937 0.688549 -29.6596 -5.83474 2.32842 -3.22803 -4.70868 -4.46244 2.0207 
0.751608 -11.1302 -8.11187 -12.0297 -0.756895 -2.55296 -28.3557 -7.48373 -22.2059 
4.68954 -28.6013 7.98785 -15.5432 -39.2765 3.94037 3.8352 3.51358 1.50258 
1.34921 -43.5657 1.45506 0.749419 -26.7373 2.43554 -20.4836 -22.3078 -21.3668 
-6.75433 8.18325 -2.08357 -1.08471 -1.20111 -1.18035 3.92449 -0.0264333 -28.2781 
0.021648 -2.35932 -33.5905 5.53197 5.35276 5.74566 4.76791 -1.52511 -1.35344 
-0.519226 -12.3397 -12.3551 2.77646 4.29055 3.80373 -1.17954 -0.281512 -0.739304 
-0.465492 -33.3691 -36.3481 -30.2571 -42.6357 -43.7113 -46.4289 -41.9647 -49.0313 
-40.9045 -26.2691 -37.4374 -0.91029 -5.83644 -4.7177 -1.33729 4.22199 3.09773 
3.55262 -0.834295 -8.60083 3.42114 3.40607 -23.0995 -1.613 -20.7023 0.874618 
-3.37231 -2.97763 -3.17443 -2.89793 2.15732 -1.54822 -2.87418 -3.44869 -27.5852 
-29.6848 -31.3441 -33.9902 -44.6899 -28.1323 0.793188 5.45251 -11.388 4.94216 
5.72393 5.52446 5.03983 5.56322 5.35341 -5.92401 -22.5094 -5.42361 -19.1522 
-2.0232 -4.96709 -2.71635 1.72071 1.6795 -5.94766 -9.88052 -25.1165 6.70445 
5.81543 5.22927 7.00615 3.76443 6.54217 4.20108 -31.919 2.19435 2.27414 
3.3319 3.77807 8.28213 3.74391 4.11278 1.43749 5.5189 2.33972 -1.06292 
-26.3668 2.4277 8.07957 2.36505 1.72741 1.45793 2.3267 3.38427 1.61403 
1.33121 0.90158 0.735243 -46.0297 2.52439 0.961041 -8.84258 -9.92802 -10.3474 
-10.2671 -9.50723 -9.36358 -13.4774 -8.61259 -7.13009 2.48465 2.05449 2.45208 
2.02191 -12.607 -35.1829 -29.6714 -5.08783 -1.38011 -1.3467 -16.9121 -16.6252 
-15.6052 -15.0917 -26.4382 -14.9793 6.95972 5.16766 4.87853 -38.1483 1.38639 
1.33406 0.525556 -51.2205 -31.3408 -16.3435 -6.34602 -6.33987 -6.6559 -6.64975 
6.01383 -2.76485 -29.3519 -14.9464 -11.9111 3.86945 8.32323 -3.50236 -2.47471 
2.6988 2.08107 -0.093648 -0.349124 2.93516 -16.3353 -3.00211 -15.0645 8.46884 
2.45958 -4.65709 1.47545 -4.72253 -6.50402 -3.8665 -3.84681 -27.3057 -26.5141 
-32.2314 -26.6722 -32.612 -5.18278 -4.33307 5.07671 5.22019 6.02026 1.79438 
3.10515 3.55276 2.11356 2.1644 2.44168 -5.23527 -49.1104 3.6341 3.55412 
2.88095 2.51214 3.45526 3.26182 3.65015 3.61802 4.34769 -49.9797 -6.53476 
0.863368 -0.617108 -3.07209 -5.40773 -1.68998 -4.61343 -0.67895 -3.25352 -2.03885 
-9.31631 -9.34718 -8.96985 -5.49877 -10.0505 -8.28137 -41.5921 -46.9219 -47.2614 
-40.6719 -45.4444 7.65641 5.24072 4.44889 7.80854 7.75297 3.86537 4.3735 
6.6079 -42.2131 -43.0455 6.81313 -4.81432 -45.6928 1.142 -0.736857 -6.17889 
-0.204683 0.48105 -35.9507 -40.1339 0.129243 -28.081 2.42761 1.25947 -0.62535 
-1.67571 5.44207 -53.0811 1.99926 3.70991 4.01378 4.72489 -4.3258 -3.08834 
-3.90521 -1.75184 -0.933463 8.13123 -5.34292 8.16771 -5.60782 -6.3031 -6.32233 
-8.42466 -7.33696 -12.2443 -24.8962 -17.7514 -1.22678 -19.6995 -10.3847 -14.4867 
-14.2213 -12.6441 -19.9254 -18.2379 -2.07732 -3.25444 -12.5344 -6.44823 -30.492 
-29.1622 -26.0294 -35.7844 -36.4556 -46.1537 2.33818 1.06047 2.26975 1.74039 
-13.8134 -13.0526 -1.10599 -1.03881 -16.1031 -15.5997 1.80552 3.12057 3.09619 
-45.1282 -40.9796 -9.95321 -43.1382 -37.9177 -3.73159 -40.0762 -13.8106 -8.39838 
-11.1532 -34.1168 -5.80063 -17.2347 -41.6096 -15.4982 -15.9245 -26.249 -10.7802 
-13.2139 -10.6057 -8.46486 1.72999 -34.5445 1.90408 1.87513 -7.1009 -13.2937 
-1.0686 -12.5124 -12.2713 -28.6562 2.44525 2.97392 2.33929 3.28473 2.20351 
2.47202 2.9855 2.95474 7.88357 -9.73718 -6.96298 -5.40318 -0.63746 2.29054 
-1.83299 -2.81281 2.31407 -3.84484 1.3229 2.18263 -37.8035 3.57402 1.83734 
-3.03814 2.78201 2.56094 -12.5848 1.56346 -2.80644 -0.547621 -41.3487 -40.4195 
2.46949 5.69849 2.96528 2.06422 0.603649 2.20525 2.49283 2.20998 1.73388 
-4.46516 -4.00193 -3.15492 -4.6865 -2.39224 -2.23758 -38.1911 -2.41358 -1.6544 
1.95607 -2.18843 6.28621 6.06947 5.59954 6.22555 6.08611 5.67684 -29.5165 
-9.38882 -9.34164 -8.3862 8.39796 -7.33023 8.37506 -10.3339 -12.1986 -9.61921 
-1.05829 -32.712 4.63514 5.25063 4.82073 4.3817 3.91042 4.9126 3.41768 
-1.75645 5.64505 -11.1586 -15.4285 -15.8404 -8.03908 -9.4708 -14.9055 -15.3004 
-16.4794 -15.1844 2.02613 4.59635 -5.19395 3.82311 3.5433 5.17226 8.36799 
-1.25539 0.681064 1.00923 0.195133 -0.268644 1.33238 -47.5022 2.28091 8.25758 
7.87537 -26.8857 -32.9387 -25.4876 4.98744 -27.7279 -2.65326 -1.27608 2.39273 
-4.10469 3.91209 4.10954 4.76829 5.07241 4.78405 2.14843 3.63959 -5.72225 
-6.23582 8.60973 8.31691 8.4578 -16.5487 -1.74951 -16.4917 4.34462 5.92196 
7.01236 4.38447 3.31988 1.89479 3.61552 -3.25823 -5.24062 -38.7691 2.27672 
-4.90912 8.27021 0.529849 -33.9441 -3.64179 -14.6028 -8.89459 -8.39591 -7.78282 
-9.55268 -8.9426 -8.45043 -7.66156 2.02092 -25.7255 -6.931 -6.03856 -6.52632 
-6.40945 -8.07439 -5.37794 -8.03008 -24.9704 -34.904 -9.10164 -3.59126 -35.0455 
4.92224 -4.54359 4.96258 4.70101 3.05737 -26.6494 -2.34916 -31.6245 -29.2985 
-14.8755 -1.01581 -0.962289 -18.0239 2.26724 2.43476 2.34362 2.51113 -1.73821 
-1.77273 -45.4549 -16.903 3.71485 2.50496 -31.403 2.71173 4.03906 -35.415 
2.33303 -9.25342 -3.91362 -8.49307 -13.6942 -2.16668 -15.2693 -49.5435 -49.382 
-47.4174 -14.2184 -12.8386 -8.88884 -28.2124 -12.1417 -18.5008 -36.0621 -17.2862 
-6.52526 -8.03768 -9.36689 -7.1671 -12.9039 -31.3554 -29.695 -1.57918 -1.46288 
-2.54489 -4.26271 -2.36229 -0.645278 -1.66586 0.604314 -4.9793 -0.264256 0.370607 
-0.815673 -1.13973 -1.66816 -2.84519 -3.62155 -5.41614 -1.03002 -1.62064 -1.04899 
-9.66495 -8.7252 -13.6199 -13.3824 -35.0209 -39.9913 -39.8961 -34.9668 -38.6704 
-34.6961 6.41499 -23.9231 -8.19443 -5.22267 -3.77613 -6.88537 -2.05635 -3.76013 
-5.51635 -2.81266 -6.07306 1.00738 -0.774003 -12.5239 -10.5761 7.2033 7.12994 
6.93689 7.46263 7.26959 3.85509 3.29878 2.94531 3.31657 3.93583 -13.7328 
3.62665 -0.102551 -0.52521 0.0958834 8.18008 7.81545 8.08125 7.96758 -7.31027 
-4.46302 -3.32732 -4.31367 -4.33194 -7.127 -9.18586 -4.18335 2.08855 -7.91167 
-4.16366 2.20553 -43.5671 -46.8129 -1.30981 -30.0965 -9.91522 2.22676 2.03352 
-15.2247 -2.71549 -16.628 -18.8701 -3.31889 -2.03482 -16.0001 4.62208 -53.4599 
-46.4245 -50.216 -48.643 -47.7404 4.99867 -11.7491 1.53778 1.36694 1.49471 
1.40789 -2.43346 1.58099 -2.73291 -28.1517 -9.34716 -2.5239 -6.02374 -8.47643 
3.03065 2.3932 -5.75048 3.29193 3.85769 4.95994 5.06298 4.80699 4.99854 
4.52547 4.0419 1.42365 0.809618 1.2976 3.03649 -5.70331 -10.3051 -11.5345 
-10.4354 -10.384 -9.43219 -6.5106 -8.80422 -7.13856 -7.89559 -8.00095 -4.62095 
-1.12314 -3.58853 -3.3661 -7.83878 -2.10397 -7.94414 6.11192 2.22805 -2.53207 
-0.173286 5.72555 -0.238054 -3.22914 6.82536 6.79545 7.0837 0.492216 3.77804 
5.64011 5.04438 -31.5721 4.36334 -4.97811 0.898523 -3.0149 2.3042 2.42829 
0.772636 -0.26607 1.97981 2.17695 -3.11069 -3.83827 -9.99162 -11.2793 -10.6405 
-5.23419 -12.2082 -37.6615 -39.0504 2.31507 -5.47846 2.19322 0.848204 -17.1914 
4.57959 3.92518 0.959378 1.31821 1.27726 1.2342 -43.5196 2.31312 4.09736 
3.0828 -4.37766 3.95212 3.54368 1.01619 3.87284 -42.9447 8.49782 3.4966 
-39.446 -1.94639 -1.13963 -6.07595 -29.6747 -9.80802 -2.33369 -3.48062 -5.48232 
-11.3546 1.62406 -1.184 -0.562908 -1.67449 6.40478 6.50281 6.68755 5.55457 
6.68675 5.84025 5.0837 5.66224 -6.66677 -4.03179 -7.71294 -7.50771 -13.4826 
0.247758 1.27706 2.58982 3.72043 1.59329 1.83557 -1.75279 -44.579 -41.084 
-36.5379 -19.3952 -14.6328 -17.8112 -8.47035 -10.3881 6.76654 -28.6344 6.36392 
6.17471 5.85674 -2.83348 -2.56257 -2.61596 -3.88096 -6.19569 -6.25828 -15.8566 
-2.59148 -3.86804 -3.0502 -0.90969 -0.504421 -4.00417 -1.31744 -3.43102 3.48288 
5.29426 5.05982 5.39414 2.20447 2.54626 3.78053 2.90348 -8.24681 -8.8269 
-34.643 -5.20048 -5.50423 -19.9504 -6.52394 -7.16686 -23.4667 -2.19711 2.6666 
1.96861 2.46974 1.65551 1.61877 -10.7733 -11.6062 -35.764 -35.4483 -40.7828 
-37.2798 -2.53472 -6.95653 0.642888 -0.210225 1.1079 -37.1396 -38.8325 -0.323443 
0.417759 -0.967178 -39.3685 -40.6216 -41.6009 -7.71906 -41.219 4.59986 5.47557 
5.95536 -1.00411 5.50781 5.89902 3.29117 0.739817 3.8659 2.95255 2.33161 
-0.0225155 -38.2176 -36.7168 -3.63415 -29.4435 3.19774 -5.67397 -12.2343 3.00222 
1.0072 1.72368 -38.7695 -38.7845 -1.63769 2.43385 -1.53514 6.59972 2.20243 
6.58572 -14.475 -11.3413 -13.222 -7.31337 -11.02 -8.74612 -29.6816 -33.8757 
0.793523 -1.58102 -26.184 -1.6841 8.13976 -1.56752 3.91764 -4.13024 4.27808 
4.31526 -3.47988 4.43949 4.13031 3.71142 4.0206 -28.9716 -17.0365 -5.56234 
-41.0866 -2.52038 -4.35363 -11.7973 -7.48362 2.40188 2.28824 -3.60088 -22.5186 
1.69265 0.915817 1.29057 8.19261 2.03971 -36.6811 2.27921 -39.0136 -5.81981 
-7.06727 -5.58397 -6.49189 -8.55964 -40.0222 -6.63412 3.37127 3.40388 1.1598 
1.67462 1.75398 8.05067 8.00326 8.02112 2.14244 -40.3065 0.667512 -1.9289 
1.42101 -2.89438 -0.95296 -1.21541 -3.07062 -1.43615 -7.62783 2.72537 3.49579 
3.14216 2.98679 2.54224 -3.89725 4.27668 3.37355 -0.815044 3.66873 -1.73481 
0.867473 -7.77982 1.68916 -4.35796 1.44387 8.30022 8.16764 8.44491 2.21805 
2.42883 2.22159 -4.29234 -4.41401 -7.15651 -7.10064 -6.8374 -2.84947 -1.18146 
-1.23364 -0.80909 -36.0355 6.11229 -0.338737 -43.5063 1.87951 -43.6091 -35.2825 
-5.88269 -7.4323 -7.05639 5.96063 -6.18855 4.00174 -7.78452 -22.1049 -27.333 
-28.8959 -32.7076 -7.3079 -2.3285 -3.19075 -3.16919 -34.7953 -42.1654 -42.2606 
-44.4791 1.85041 1.77242 2.14977 -1.8126 -5.87947 -8.06798 -7.80212 -7.90521 
0.419519 -5.98199 0.206802 0.762396 -30.1264 1.97702 2.25409 2.15596 -5.00971 
-4.23702 -5.08388 -4.94611 -5.20315 -5.59017 -5.39672 0.240737 -7.30415 -7.18596 
-0.89663 -0.42156 -28.4798 -45.3278 -45.5203 -41.7401 0.349439 1.74375 2.86959 
1.47528 2.42733 -7.0024 -1.37524 -36.3285 -26.3796 -7.42055 -7.01428 -9.30232 
-3.74854 -4.80514 -8.33914 2.52912 -9.11386 -11.7567 -9.97487 -7.78607 0.0308884 
2.4095 1.45713 -7.87893 3.0849 -19.8952 4.60384 3.90898 -5.82379 -4.2421 
-3.95058 1.34341 -4.57627 -4.89079 -4.89362 -22.8562 -1.64776 -3.35833 -2.21372 
-1.42134 5.03844 4.91988 3.97321 4.40986 6.55466 -0.45177 -1.22829 -10.3497 
-10.338 -10.5668 -31.4588 -11.1028 -0.732409 -3.93026 -3.19564 -44.0812 -45.2648 
-2.17534 -5.98951 -39.5252 2.32214 2.22045 2.29966 -31.5445 -26.6532 -7.91942 
6.0799 5.39223 5.84092 2.11008 2.05815 0.425691 2.2676 -0.0355657 -11.0791 
-0.504903 -15.1683 -14.4304 -12.4794 -3.32777 -7.04082 -8.03843 -6.96022 -12.5575 
-14.6938 -10.154 -12.2903 0.399623 0.55938 0.494036 -5.2923 -31.4626 -31.2985 
-28.8926 1.91974 2.30207 -28.7285 -11.333 4.17568 -4.96374 1.8985 -4.74128 
1.0088 -4.82969 -0.996091 -4.14701 -0.26654 -1.27867 -5.80981 -0.106283 -0.813362 
-0.699885 -4.57245 2.10036 -36.9384 -33.6869 -7.14276 -9.07847 1.45677 1.70805 
0.988887 2.43236 8.16542 -1.60428 -20.4527 -7.41449 -0.221888 2.19797 0.974939 
3.05877 1.68714 -1.258 -7.50078 3.5358 3.85009 -1.36175 -6.78073 -22.0691 
2.22298 -8.06987 -39.6476 2.2487 2.7352 2.3448 4.75498 -1.92463 -36.4206 
1.95281 -33.7244 6.44101 -25.3048 2.26634 1.66152 -13.8816 -2.12494 -6.65334 
4.91813 5.37602 4.62343 -1.54884 -0.57301 3.75245 3.74196 3.81158 -1.6966 
-1.88612 -1.45018 -2.86846 2.38179 -5.55635 -0.26243 -0.694979 1.81844 1.13945 
-1.63543 -0.801394 -1.39664 0.523452 1.7144 -9.63556 6.77045 -6.28351 2.02961 
1.9549 -2.00227 2.1519 4.5241 4.85907 3.06331 -17.3121 2.6558 2.76392 
-19.9033 0.626639 0.649801 0.429206 1.15748 1.83674 -0.315639 1.13233 2.33134 
0.406891 -1.97396 1.66728 -17.5256 -44.2316 -38.1787 5.78592 -32.496 -27.2034 
-25.5584 -12.6439 -14.2548 -12.875 7.23916 7.43593 0.70416 2.02467 0.272443 
-0.44566 -0.834386 8.00107 -10.1099 -8.56835 -9.32997 2.21534 -7.69012 -7.77641 
-7.81201 -2.25693 -2.51127 -2.69616 -36.4584 -2.22861 -8.00466 -3.02305 -6.1601 
-5.05067 -4.69036 -3.49532 -3.85563 -1.22665 -0.504965 1.78852 1.66843 8.28598 
-37.6728 -34.4585 -41.5638 -36.1311 -42.529 -38.8238 4.45865 4.7266 5.86678 
6.27543 -2.59315 -7.94174 -9.71184 -13.1437 -16.8378 2.15706 2.64972 -16.2392 
3.23985 -18.8304 3.16505 -5.22714 -3.39744 -5.45931 -2.08083 -2.13215 -2.05524 
-4.41737 -11.4743 -9.2723 -10.5127 -8.1259 -12.3152 -7.38674 -0.0599599 1.1817 
-0.330031 -18.153 -10.3426 -9.61737 0.827771 1.52021 -0.171828 -0.468257 -6.51768 
-6.51153 -0.392947 -0.852029 4.45321 2.7023 4.24443 -4.57716 2.99794 2.29024 
-4.48702 -3.91239 0.312741 -7.60542 -8.32181 -10.0703 -10.7867 1.67527 1.60584 
-5.30675 -5.05329 1.51667 2.84506 3.12009 -6.18112 3.03553 2.65131 -0.867406 
2.18855 -1.97016 -2.1955 3.1645 3.51248 4.59858 4.3057 4.5552 -37.0223 
3.61616 4.31873 1.28658 2.62174 -34.3261 3.60853 2.87769 2.16367 -1.43058 
-33.2356 2.24657 -4.21613 -27.0386 0.600698 -1.41709 2.58209 -3.77035 1.64334 
1.45576 2.19621 8.15072 2.49696 -1.06351 -0.16248 -0.621563 0.324552 -0.595642 
5.18993 -2.64181 -1.66598 -6.6327 -6.9735 -22.1443 -7.86778 0.836659 -32.6202 
2.27616 -24.0852 -23.206 -1.43091 -0.0551985 0.58542 1.60038 2.20117 -25.3642 
2.09775 1.98999 1.50687 2.84424 2.58927 1.37563 2.27376 2.29188 2.67782 
3.64852 -2.70115 5.08052 3.99799 3.426 2.44058 -7.46762 -8.23039 -3.96326 
-22.3206 -21.4414 -2.78398 -2.81796 2.11068 1.07253 2.26444 1.49161 2.21386 
-11.0547 2.35555 2.47081 1.4725 1.21493 1.44502 1.7026 -39.7489 2.33727 
2.61121 2.23518 2.32508 -3.31676 -2.46345 1.93022 -2.80805 -3.13042 -1.19512 
-3.23367 -0.150473 -2.86961 4.03271 4.15786 3.57256 3.69101 4.27631 -3.81035 
-6.18732 -16.292 0.11753 0.25548 -2.414 -2.38569 -6.37052 -5.40319 -6.02505 
-6.46608 -2.82256 -1.09005 4.09279 7.91682 4.03286 2.10276 1.61276 2.92649 
2.56495 2.17883 3.08962 2.72809 
METADATA
INFORMATION 0

STRESSTENSOR_YY 1 15232 double
-3.411 -2.75049 -1.83281 -1.18789 -9.63649 -7.94363 -18.1378 2.97867 -8.33305 
-1.27716 -17.6451 -5.84432 -12.0128 -7.83783 -24.6213 -1.25772 -7.20997 -19.2929 
-3.36335 2.20123 -18.2683 -1.26191 0.217728 3.78482 2.59862 -7.8992 -2.38971 
-8.00904 4.09369 0.221895 4.85451 -1.56411 -10.0473 -3.37689 2.41186 -2.83029 
3.79688 -19.0655 0.219094 -0.507328 -9.57452 -32.6008 -0.58991 1.26348 5.69267 
-1.19189 -2.9413 -16.5318 1.77834 -1.55984 -3.15934 -35.4291 -1.70348 -1.1967 
-19.5118 -6.33407 -0.008522 -27.3468 -0.904699 0.880347 -1.90969 0.117528 -0.0133735 
-1.35685 -19.6615 -7.9399 5.15382 -22.36 -6.94985 -6.34303 -7.7622 -22.2925 
-1.97957 -0.421844 -28.7629 -3.7979 0.219608 -6.20786 -16.0004 -7.17342 -26.8525 
5.01968 5.23293 -6.02876 0.405276 -2.42182 0.243266 -1.67822 -4.59394 1.72909 
-10.927 1.30632 -11.2541 -1.23053 -11.7701 -0.632888 -8.04253 -5.80039 -0.936579 
-1.78561 -4.34115 -3.56072 -18.3216 -28.2907 -24.5355 -34.8769 1.33749 -0.000434208 
-6.76077 1.18905 1.51211 -1.1004 -0.396984 3.7898 -0.115477 -0.797507 0.418977 
-6.63751 -2.5581 -2.27065 -0.207105 -1.81558 0.113331 -5.65643 -2.25645 -0.859505 
1.81974 0.573892 -10.1357 1.80247 -0.973929 1.1265 -8.5032 1.97822 -0.660558 
5.73055 1.60099 -5.28823 4.33644 0.677173 -8.30585 -0.938852 -1.91889 -1.39765 
-3.69813 2.58658 -1.72683 -3.74532 -14.4646 -3.33706 -2.63411 -5.6591 3.73438 
-0.250575 -0.591675 -0.860889 2.87055 -12.344 1.1112 -7.29661 -6.90096 -6.06953 
1.89985 4.74587 -1.91431 2.87207 3.40784 3.69296 -8.51441 -1.04674 -0.499722 
-2.2943 -2.19683 -2.54554 -0.161237 -0.289978 -7.59685 -12.0638 4.03327 -3.32378 
-1.04451 3.48808 -3.01906 1.48516 -7.13343 -5.94248 -10.5835 -11.9743 -11.7288 
-8.05779 -4.2528 -7.82688 -7.33729 -10.4145 -2.02132 -2.77586 -5.9837 -7.68429 
0.508206 -7.23969 -7.87708 -5.47683 -1.42603 -7.36766 0.489756 -0.132015 3.5779 
-3.38884 -4.81086 -1.68987 -12.1376 -10.0405 -0.956215 -4.7482 -0.742052 -1.7338 
-7.36048 -6.0082 -7.54889 -1.424 -23.2524 -10.6515 -13.0435 -15.0629 -0.945487 
-9.24371 -0.753133 -8.14892 1.70569 0.76925 4.17669 -4.42139 2.65716 0.313087 
-9.08385 -3.68196 -9.31661 -0.4257 -13.9292 -6.05311 0.0504556 -2.75974 -28.4845 
-6.149 -3.3595 -14.3139 -0.0905377 3.42686 -12.4323 -8.57923 -1.51601 -0.613686 
0.737984 3.5611 -7.90085 -4.36411 -0.950095 0.0098241 -1.28827 3.39494 3.87908 
-3.84592 -16.3895 -18.1704 -0.117239 -0.165544 -0.163268 -12.1476 -14.1402 -13.3497 
-11.6838 0.0294778 -21.9329 -9.0232 5.85639 2.84975 -5.7462 -1.45551 -8.35857 
-1.92713 0.488423 0.809753 -5.94559 -0.275711 -0.187257 -14.1306 -8.06131 -11.1525 
2.07741 -8.69249 -9.97655 -4.83483 -7.13437 -3.91648 1.27081 -0.354227 -0.0738914 
-22.7944 -17.0254 -6.43613 -5.55484 -7.14961 -0.80923 0.160724 -11.0729 -0.357054 
0.26115 0.893504 -16.1 3.80359 -1.12186 4.92302 0.978124 -27.6085 -16.1083 
-26.2006 -7.92194 -0.0162163 -2.55584 -7.29799 2.05779 -0.883824 2.85642 5.46182 
0.277601 1.00659 4.20838 -0.534306 -0.525015 0.246038 -0.71069 2.87003 1.30461 
3.52957 -0.644713 -0.611116 0.728818 0.136828 -2.94798 -1.34694 -6.98558 3.82473 
0.213356 0.432333 0.256659 0.807364 -2.96085 4.84097 -1.9562 -0.423837 -1.32269 
2.75787 -0.552694 2.54351 -7.80446 -4.63012 -15.2069 0.209129 2.9648 5.08672 
0.866371 5.98362 3.53304 1.13254 -0.208664 3.44041 2.64891 -0.0402814 -15.4439 
-12.2559 -13.9782 -20.2206 -9.29526 -1.18621 -12.9612 -20.1244 1.66607 -24.6861 
-0.570694 1.59915 -22.0809 -23.2863 0.00446076 0.682777 1.58605 4.86633 -2.57851 
-7.00392 -7.73649 -3.68219 1.38004 3.07513 -0.461854 -15.3549 -4.98147 -6.40765 
-18.6861 2.21 0.765612 0.618705 -13.1442 5.27733 -2.42327 -0.784829 4.57655 
-0.391006 0.328823 2.28446 5.2397 0.60052 -7.79558 -14.544 -0.635042 -0.199773 
-8.63591 -21.9582 -3.11406 -2.98633 -8.22321 -7.12164 -4.61074 -2.9695 -7.28197 
-4.53206 -4.61452 -1.85095 5.5675 5.58514 -17.4512 0.188448 1.67771 -16.6438 
-0.0920685 0.0354889 -1.68895 -2.60788 -1.98831 -1.15979 -2.05218 -0.81964 -0.826162 
-15.3413 -6.3459 3.81125 -5.84644 -4.40085 2.84486 1.1306 -10.279 -13.5285 
-13.5614 -11.507 -7.56177 -2.64496 3.63265 -2.46872 -7.90951 -5.41321 -7.25013 
-11.8162 -7.8548 -7.14702 1.71292 -0.358792 -0.770416 -0.342048 -17.4352 -3.67965 
-21.5117 3.15568 -18.7596 -0.980508 -8.59493 -2.80552 -4.71178 3.90348 0.118589 
-7.90274 0.129314 -3.82432 -6.76296 -2.17011 4.16782 -6.99647 -10.9998 0.214257 
-22.62 -10.1066 -2.11589 -0.447669 1.09217 -2.52729 -11.8622 -15.8627 0.468371 
-3.37398 1.82257 2.30408 -0.947433 -3.09516 -1.25252 -1.09237 1.81632 -0.186543 
-7.26362 -5.74511 -6.13609 -4.63643 -2.23723 -1.47134 -12.1624 -6.99449 -4.04892 
-11.3968 2.45399 -4.15547 -5.29555 -0.502604 -9.71235 -3.19772 -9.0145 -0.349054 
-1.2323 -2.0381 -1.93934 -3.30532 -9.6609 -13.1428 -22.4826 -4.4086 -15.8882 
-7.87577 -3.75276 -5.13946 0.643232 -0.166309 -20.9431 -0.109591 -5.00564 -5.43653 
-5.44081 -6.57049 -1.0789 -16.9529 2.28344 0.179365 -7.76142 -8.0458 0.473582 
-2.17872 0.971198 0.589234 0.645165 1.52323 -1.75536 -6.79711 -7.95623 -11.7358 
-1.51625 -0.507752 4.45414 5.0819 4.49749 -0.601686 -0.223544 -6.95775 -1.11262 
-8.67704 -6.36249 -5.0909 -7.35459 0.360188 -0.976779 0.0200082 -0.620408 1.03977 
0.0125387 -1.22118 -3.50834 -6.38409 -21.7123 4.76503 2.9528 -1.3104 -0.539482 
-1.69218 -0.0262784 2.56921 -31.373 -6.31747 4.91398 4.36793 3.15978 3.90218 
-13.0211 -0.698429 -0.968957 -1.50997 -0.659499 0.524414 3.38302 1.42195 0.0810838 
-13.7791 0.654106 -3.02841 4.73867 3.53438 3.76126 -21.8209 -5.88541 0.0130935 
-5.20309 -7.64083 -4.50945 0.413737 0.0979623 2.88015 -5.08755 -3.87016 -5.805 
1.99077 -2.02236 3.80552 -8.38137 -1.27324 0.145153 -1.21787 -1.24604 -8.02675 
-8.46665 -6.44446 -4.12948 -0.879348 -8.07478 -7.6676 1.79164 -19.0318 -0.922686 
-12.352 -17.7257 -7.22131 -23.2668 -3.2775 -1.27444 -2.15284 -1.95382 3.31728 
2.03621 4.33477 4.26738 3.05807 1.05075 -4.21082 -19.5285 0.513651 -3.04572 
-4.24411 -2.29837 0.145913 4.11743 -0.0462789 -0.196224 -1.47511 -0.98995 -0.0713244 
-0.527102 -3.71909 -15.3104 -6.40922 -5.33761 3.91918 -5.42512 -8.46455 5.19985 
1.33593 -1.47758 -1.46173 2.02858 -0.738575 0.410673 -0.577698 -0.131637 -2.6605 
-1.55902 4.16416 5.18764 0.259557 -0.37062 -0.438174 -9.80625 -10.46 1.01631 
-17.8783 0.00486834 -0.0465057 0.461982 -4.76739 -0.550226 -7.66069 -5.32853 -3.52572 
-1.61293 -1.36217 -3.06209 -1.31377 -2.42383 3.93123 -7.15961 -8.00919 0.0757356 
-7.3678 -7.67911 3.25204 4.64183 2.0893 -0.193859 -0.572984 -7.46144 -7.18656 
-35.5848 -18.3825 -17.8231 -14.3991 -18.6968 -0.227902 -0.715475 -0.378516 -9.75137 
-8.11746 -10.7751 -11.9793 0.263793 -0.113002 -0.426991 -8.79166 -4.0529 -21.2207 
-5.62789 -0.287446 1.62185 3.07955 -1.53211 1.05148 -0.0348124 2.33848 -2.36141 
5.05864 4.18679 5.14261 5.08437 -5.71613 -2.22136 -4.86076 -7.47881 -5.51383 
-3.11472 2.31917 4.30988 -13.7068 -10.3245 -2.05999 -0.265858 2.05922 3.75724 
-27.8188 -5.31571 -4.43344 -15.0354 -1.33195 5.34414 0.626463 -7.21218 -8.36673 
-6.5487 -1.48177 -9.0184 1.4551 2.26239 -1.0485 -2.50791 -8.71836 -29.0277 
-14.214 -9.01587 -28.5554 -14.9736 0.454306 -1.02753 -0.0286229 -25.98 -14.1938 
-0.612547 -5.67023 -4.59928 -7.15045 -6.48244 -0.6094 -0.262321 -0.266227 -10.2251 
-11.4025 -5.39052 2.57578 1.84868 2.73397 3.87113 5.81986 -1.35274 4.11496 
1.59462 0.442382 -8.69828 3.28741 -11.1105 -0.628755 -7.62131 -10.0664 -16.896 
-14.2728 -7.47777 -8.68706 -1.3853 -10.1741 -4.78611 -9.82406 -0.189426 -7.63287 
-5.17274 -2.85877 -1.4422 4.8127 3.14829 3.82737 -0.237229 -0.200436 0.543712 
-1.20825 -0.446249 1.55094 -3.79007 2.10414 2.74315 -6.87987 -25.0892 -2.80098 
-1.79369 2.98468 -2.64115 -0.239643 -8.14799 -0.340634 -0.855657 0.390295 3.96877 
-1.44457 -1.38431 -1.75335 0.152179 -8.37063 -11.5497 -19.8676 -8.58299 -10.6932 
-16.5509 0.169088 0.917542 0.185756 -4.37446 -14.9118 -34.7037 2.40717 2.05899 
-23.3664 -10.344 -7.21975 -0.149617 -5.83963 -3.49 -11.6872 -19.0071 -9.23545 
-0.482252 -23.0725 2.63593 -10.4059 -2.23659 -6.03069 -0.789962 -8.36594 -12.7897 
-10.9378 -2.3867 -1.78129 -5.71622 -11.5602 -9.0224 -19.2846 -6.15557 -2.9436 
0.308388 -1.45107 -13.5022 -8.84271 -32.1239 -21.9001 -13.646 -22.6551 -7.41317 
-20.4235 -14.9441 -13.5901 -4.06796 -8.36116 -1.95777 2.39053 -2.28209 -11.2776 
-2.76115 -1.81813 -0.507338 -0.140657 -0.320956 -0.225424 -3.3153 -12.3353 -10.7047 
-3.04872 -7.72409 4.80574 5.0381 -32.9394 -8.13486 -0.684475 -15.9557 -20.4795 
-14.0081 2.53486 -3.26403 -7.2763 -26.3181 -3.18751 -26.4237 -24.4691 -4.58717 
-14.8998 -2.92873 5.18742 -15.0401 -20.2319 -4.83982 0.713704 2.40682 1.28032 
2.66833 2.9609 1.61402 0.350825 -1.43403 3.3527 3.6612 -1.58799 0.076944 
-1.08959 0.0701115 -5.87001 2.24599 4.28461 -16.9575 4.32204 4.02324 3.61747 
4.74197 4.03504 0.678339 -1.48129 -0.372622 -2.97985 -1.26982 3.08365 3.29812 
5.28521 4.20804 -7.93585 -5.88664 -7.01098 0.129826 4.31335 -7.34367 -0.191136 
-0.897701 0.635028 0.161114 -6.49588 -9.91031 -8.68842 -10.3911 -7.06634 -0.451604 
-0.828478 -1.82444 -1.11471 1.13442 0.591313 -13.8915 -8.00814 -3.6884 -2.30194 
-7.9456 0.562963 -0.0864238 0.00684954 -0.760371 0.190934 -1.19025 4.10128 2.06204 
0.103253 0.335433 -0.214998 -0.224474 -6.07563 -1.97256 -18.2331 -7.16017 -10.3962 
-1.9843 1.19277 -18.4069 -13.5677 0.179577 -0.216453 -0.499421 -0.0827635 -7.99932 
0.254235 -0.906523 -11.029 -3.94144 -5.56753 -5.3892 -0.0106297 -8.63359 -11.0807 
-9.28576 5.22671 3.32105 4.58881 -0.756274 -6.84626 -8.05191 -7.44034 4.94937 
6.02456 5.01473 3.62321 1.84641 3.03762 5.41548 4.95872 -1.50915 -1.29761 
4.26999 -0.916164 -9.24335 -7.58162 -13.666 -12.4249 0.170457 -4.46232 -0.965558 
-2.24888 -12.2386 3.24589 -15.2737 -1.42822 -2.08482 -24.535 -18.4477 -39.6545 
-40.4837 -8.36882 -2.65645 -7.16528 -7.46438 5.50536 4.93218 -10.8957 -5.54299 
1.15587 -5.22906 5.81035 -22.1578 -35.211 -19.4975 -4.77213 -0.68022 1.75779 
0.548495 -0.186498 4.091 2.38602 -1.91483 -10.5421 -1.59351 1.93359 -11.9585 
-13.0451 -0.960741 -0.335683 -1.60799 -2.79075 -0.252849 -4.31926 4.84928 -7.63139 
-6.5305 1.06823 0.893165 -16.1538 5.08333 -9.69333 0.0159066 -0.826089 -0.425457 
-0.786731 -2.62309 -22.6593 -36.652 -9.30759 -12.8764 -10.6464 -0.112821 -4.10902 
0.0510053 -6.35081 -6.81369 -0.538961 0.265929 -26.4927 1.15515 -1.02216 2.22642 
-34.6793 -1.42086 -1.91922 1.62281 -7.70111 -0.800759 -5.05645 -14.3111 -3.4138 
-0.882221 -2.25359 -1.76601 -1.17928 -1.63157 -9.2939 -17.1447 -3.66753 -11.9202 
-19.8014 -7.75061 -6.68696 -4.46579 -7.85479 -3.59986 -3.06522 -4.59765 -7.68337 
-4.07873 -11.0441 -35.2197 -0.990684 -1.2927 -1.03597 -3.70343 -1.46698 -3.03056 
-8.08368 -1.13168 -7.75983 0.178296 0.152148 0.788409 -0.703041 0.148602 0.360002 
4.99696 2.3049 -27.0997 4.12025 2.05249 2.28675 4.6788 1.88316 4.37536 
-8.81769 -2.93878 -4.25796 -1.77544 -3.61359 4.08109 2.18532 2.70063 -6.88883 
-6.53542 -4.95566 5.94502 5.70606 -4.11868 -2.00125 -1.67243 4.94722 -8.61581 
1.9789 -11.55 -4.7381 4.62892 -6.76613 -18.5526 -24.2643 -10.4555 -0.0434463 
-0.0233105 0.106786 0.442193 0.42167 -0.423578 0.0614811 -11.5398 -2.05663 -5.13282 
-1.34519 -10.0724 -5.30877 -16.6386 -27.7649 -19.4909 -24.5703 -16.6318 -20.8999 
-24.0847 -10.9991 -1.4936 -7.24294 -5.76031 0.206834 -6.3129 -12.6284 -9.43913 
-39.3489 -22.3255 -32.4235 -8.4881 -0.0148028 -0.09369 1.469 -16.5534 -2.56951 
-8.07987 -7.86238 -6.35949 -20.0393 -1.1167 -4.21762 -5.91427 -16.8976 -12.3167 
-29.615 -11.1328 -20.8315 -17.3359 -17.2906 -17.8163 -4.36151 -7.23552 -8.20879 
-0.963397 -0.311885 3.61803 4.02466 5.65443 1.28197 -1.37544 0.834 -4.76383 
-6.12077 -7.10614 -4.80124 4.28489 -7.61488 0.354089 -2.47868 -0.407833 0.234677 
-0.206972 -6.24302 -2.07382 -0.448231 -4.68199 -6.59704 -4.93942 -3.2363 -1.32314 
1.70687 -1.84865 -10.714 -2.74317 -4.31635 -4.67597 -2.89812 -7.81468 -3.4816 
-0.422438 0.123327 -0.0824707 -0.488904 -0.201397 1.78677 3.36505 -1.70306 5.46241 
-0.72117 -12.8063 -6.14423 -12.299 -17.5732 -0.778802 -37.0343 -24.4418 -25.2984 
-2.78712 -8.84532 -1.02644 -9.76866 -20.1246 -0.309 -14.1588 -12.7124 -13.6554 
-9.16825 0.36699 0.464736 1.47437 -5.7699 5.16761 4.58923 3.95094 -3.19915 
0.110317 -0.233523 -14.7195 -6.26059 -4.52762 0.0514473 -7.20841 -3.35515 5.22716 
5.28027 -3.38129 -1.79653 -1.19916 0.978688 0.463714 -0.429114 1.37696 -0.912848 
-0.763234 -1.98184 -7.75785 -8.94879 -9.58729 -4.87329 -14.4718 -16.4515 -2.40096 
-7.58313 -1.96849 -6.35027 -8.33132 -3.12277 5.01922 4.5951 -7.28782 -1.66469 
0.37041 -11.0709 1.58107 0.712898 -0.889278 -2.85218 -1.14414 4.46744 3.43742 
1.20222 1.99957 0.0479555 -1.30782 3.28842 2.30595 -4.74333 -7.65959 -7.55686 
-9.43475 -5.09482 -3.56694 -7.37164 -24.7295 3.86958 2.87208 -5.44201 -0.3897 
0.11436 -32.3191 -32.4308 -2.71981 2.99023 1.53747 4.4323 2.70723 -2.81459 
-5.78949 -8.11253 -3.93901 -6.86038 -17.9745 2.61799 -8.22187 1.09685 -4.76184 
-6.47223 -3.72146 3.39749 4.25896 0.0345201 -22.2728 -0.720526 -4.93375 -10.5107 
2.42864 2.2031 -8.81442 -5.365 4.20194 5.14554 3.23329 -1.70676 -1.35383 
-3.23988 1.53986 3.37016 3.72126 -1.46174 3.85837 2.80084 3.74203 4.55806 
4.795 -25.2986 -40.0069 -13.929 -11.039 0.417474 0.626539 2.26979 -0.504847 
-14.997 -0.10999 -1.52197 -0.470007 -0.0528772 -12.9775 -14.4447 -8.8962 -10.6698 
-21.6568 0.191123 -0.0210969 0.187247 0.358116 -0.0196116 -3.07557 3.01826 2.65429 
3.17537 3.76213 5.47475 -8.19097 -9.83601 -6.39411 -2.44743 -5.41433 -9.07419 
-2.16272 -33.0853 -18.5306 -5.70367 -4.21848 -6.0428 -0.714314 -4.4624 0.220047 
0.632309 2.29528 -24.0972 1.77774 1.9299 -7.56824 -5.82951 -4.01802 1.78208 
3.3685 1.04237 3.30625 -0.633955 5.17873 5.43262 4.69437 4.40282 -3.78611 
-1.76559 0.752935 -1.24257 2.64714 3.33879 -4.75726 -1.225 -6.51851 -2.90649 
4.05713 1.58678 3.51297 -0.0930223 -19.3511 -3.72195 -9.33884 -14.9312 -12.5779 
-2.46771 -6.59674 -12.9291 -20.155 -8.47061 -4.6292 -0.673913 0.222349 0.613048 
-12.5589 -7.3362 -1.76344 -8.22651 -6.83841 -2.61961 -16.886 1.19104 3.71176 
5.07964 3.50866 5.97045 -2.75988 -9.09062 0.115196 -1.16612 5.10532 -7.63032 
-7.32466 -7.66537 -6.15671 -8.78771 -8.61053 -0.308944 1.3748 0.443823 0.216668 
0.191352 4.4922 -6.2958 2.72049 0.240349 -9.41483 -28.8393 -30.0121 -20.7034 
-20.4681 -1.22676 0.631868 0.301381 -1.89517 1.78751 -1.47368 0.40469 -18.694 
-16.1237 -13.111 -22.8581 -1.79534 -0.253903 -1.37743 -0.117879 0.000632858 -1.43055 
-1.13967 -5.8754 -14.8543 0.77495 -0.552251 3.28187 1.63189 2.49163 2.79896 
-2.78269 1.65216 1.1251 -2.06102 -5.03451 -0.419292 -7.9466 -2.02857 -8.25029 
-7.49879 0.100214 -0.0964878 -27.1636 1.74487 -40.4761 -30.3812 -31.4934 -8.01841 
-0.22049 -2.41633 3.16799 -16.6472 -8.36229 -8.01106 -7.3881 -7.03922 -8.12694 
-0.804105 -1.09571 -1.00306 -1.76748 2.59278 -1.38012 -1.68588 -2.00406 1.46869 
-25.4 -22.8552 0.85188 -6.40938 2.72306 -0.675538 -0.307859 -1.73992 -0.833062 
-2.40251 -4.6857 -7.48925 -5.78039 -9.31052 -3.39992 -5.95097 -8.72786 3.8104 
3.30773 4.54325 4.1861 -11.3714 -7.29786 -4.09883 3.35997 -9.81793 -6.70657 
-22.1845 -16.546 1.42064 -0.608503 -19.1314 -0.119761 -11.6731 3.62388 1.29975 
-0.737368 3.48412 -26.0581 -11.3213 -13.0629 -8.72929 -4.52844 -10.6939 -1.5667 
-3.8842 -5.732 -14.0516 -13.4404 -0.380157 -0.864855 4.78402 2.21205 2.93103 
3.23992 -12.3786 -3.20017 0.197537 -15.9594 -9.44882 -5.01051 -5.36975 -3.01027 
-0.354149 0.414835 -22.4285 -4.11813 -3.43668 -20.1275 -5.7932 -3.87795 -4.24467 
-5.69774 -6.26431 -8.11692 -5.3234 -27.0525 -3.04634 1.54601 -1.65126 -0.509856 
-7.56152 -8.65887 -7.31569 -3.68235 -15.8707 -0.348617 -2.06354 -0.916354 -16.9056 
-13.4861 -16.911 -0.932341 -0.359938 -0.180578 -7.47606 -4.68642 -7.87703 -2.25102 
-7.69279 -10.3199 -11.6691 -9.39921 -1.95563 -4.6618 -23.2152 -4.50755 -6.03231 
-22.2607 -21.4269 -11.7945 -3.7708 -1.0938 -16.9803 0.0136468 -0.300874 2.86433 
4.32599 2.19701 -15.7119 -14.1081 -0.21207 -1.32951 1.60585 -1.18276 0.0896073 
0.985863 -4.73115 -6.17514 -2.76892 -15.2568 -6.15888 -3.54125 -2.86487 -5.44632 
3.15311 -6.05348 -8.27088 -7.25238 -7.59188 1.27456 4.78676 3.10856 3.24058 
-8.01402 -7.53508 4.44454 5.40062 -1.2313 2.7035 4.47819 -3.27506 3.51478 
-0.0964714 -3.11488 -1.75195 -5.73413 -2.90843 -1.22143 -0.0712517 0.141426 -23.6611 
-24.0797 -13.8409 -19.3542 -22.6188 -7.96623 -13.5714 -26.6457 -19.0284 -6.75038 
-8.42335 -1.52256 -0.586625 -5.76055 -0.56263 -0.287765 0.0109288 3.53683 1.01438 
0.33523 5.57524 5.78786 0.169891 -6.36824 -7.74574 0.337916 0.601932 -0.270635 
-0.173422 -1.38894 5.21494 3.88058 -3.43385 -5.57405 -7.47622 -4.86974 -0.629074 
1.53778 -6.66757 2.2269 -2.92212 4.02898 -8.10832 -7.75236 -2.80434 -3.92812 
-6.42279 -17.9557 -16.5219 -19.899 -6.70478 2.88899 3.40124 2.24437 0.899834 
0.285022 -3.42583 -0.355803 -18.3965 -21.8556 0.485126 -3.73522 -5.41981 -3.82297 
-4.19361 0.930903 2.64959 2.11356 -8.01284 -7.4037 -0.270508 -7.27505 -6.62624 
-8.1687 -1.16322 -5.0914 -2.00018 -13.0854 -21.1276 -23.7981 2.28092 -1.39815 
0.958733 1.82783 2.36832 -0.0427218 0.159266 -1.33292 -6.08459 -7.92424 -16.6888 
-15.5402 -15.0664 -15.3143 -7.59103 -5.86908 -7.93554 -5.28564 -5.25077 -2.43164 
-7.80433 -8.49277 4.89732 0.870182 1.73489 0.879041 -2.30357 -0.240793 2.87195 
3.71185 -16.4556 -5.55363 -2.65848 1.45565 2.39631 4.70804 -6.02301 -0.748631 
3.1507 4.7644 3.55983 -6.31498 -1.47673 -3.17498 -8.24233 -11.0088 -4.98407 
-2.42004 -1.78221 0.0916933 -2.31114 -1.21639 0.866279 -17.6513 -11.8489 -20.4603 
-12.3953 -2.11517 -7.64822 -0.774214 1.35972 0.24523 -4.80036 -4.2147 -8.0564 
-1.34994 0.292439 -4.38942 -1.38715 -3.04537 -1.57257 -30.7248 0.251415 -1.06196 
-2.06244 2.04102 -0.121167 0.0809924 4.15978 5.04253 4.01362 1.41596 -10.1208 
-6.32059 -8.23162 -7.2786 -10.3055 -19.2733 0.827594 4.28993 3.878 4.95199 
-0.138936 -9.06815 -0.69023 -4.97762 -1.81371 1.49568 2.41362 -1.30926 3.91805 
4.66709 3.15524 1.75963 4.31989 -1.84896 -0.177183 -0.0368209 1.10332 -9.70884 
-10.6119 -15.9376 -8.27481 0.242175 0.0307432 -0.542289 -1.53817 -3.80831 -26.8791 
0.613853 1.65935 -0.709054 4.02194 -1.31657 -1.83263 -2.17861 -2.04029 -1.11638 
-8.9039 -1.04771 -0.163799 -1.15111 -1.27126 -1.41944 -1.77361 -0.284368 -22.9812 
-31.6579 -33.0703 -7.85476 3.02499 1.29476 2.68846 5.52976 -1.65338 -1.22945 
1.24928 -6.26256 -3.61287 -7.87013 4.7367 3.94598 2.69593 4.77876 -4.77265 
-8.5396 -24.8095 -17.4484 2.47127 2.84905 4.31878 3.37862 -2.10506 -1.91329 
0.193091 -1.53593 -0.406819 -0.186078 -0.052018 -1.58258 -6.80915 -9.21928 4.58938 
4.4872 -1.64027 -0.879923 -8.99255 -7.74699 -3.03201 -1.62155 4.17202 -0.394543 
-26.206 -27.7214 -19.6837 -0.0501871 -7.51625 -8.19534 -8.17091 2.63719 1.90553 
-5.6403 -6.03248 -7.88259 -7.88059 -7.74461 -3.00916 -1.1168 -1.39201 -2.88751 
2.57751 -13.6812 5.05615 5.12967 4.70522 -34.3283 -20.448 -29.3401 -19.2883 
-18.9375 0.54166 0.933344 -0.183458 0.739361 1.06628 2.12822 4.85562 0.761232 
-1.57205 -8.66557 0.653596 3.85405 4.57118 3.24111 1.25603 -17.1847 -6.28138 
-26.9682 -11.8735 -6.9975 -8.8985 -22.5488 -14.9267 -2.8442 -6.64251 5.43203 
5.35029 4.4048 0.397665 1.17452 3.10372 1.59806 -1.10855 -4.99945 -8.88928 
-8.34988 -3.42394 -7.38863 -7.36329 -5.95126 -8.98584 -15.7036 -6.70622 -1.95779 
-3.53155 -3.39231 0.0857029 -2.16168 -0.833039 3.24776 -0.959405 -17.1244 -5.40856 
-3.05563 -4.12716 -2.09219 -5.33128 0.296995 0.412966 -7.685 5.113 -23.2773 
-1.00707 -18.7854 -2.26187 -4.98949 0.592025 -4.27213 0.56017 -10.8792 -22.0014 
-0.123191 -0.0758822 0.717953 3.08348 3.43146 0.0872025 3.41795 4.84888 -12.2336 
1.40938 -0.895681 -1.59285 -2.23483 0.211715 -0.551714 1.13176 5.70736 4.86932 
-9.15543 -12.4158 -16.5425 -6.71718 -8.16675 -3.57655 -1.07446 2.99829 -1.4946 
-36.5493 -35.1119 -15.154 -17.9507 -32.8209 -2.56322 -2.77842 -1.34521 -2.28678 
1.80652 3.05425 -1.23048 -3.66712 -0.841442 0.476005 -5.78278 -6.9237 -5.02596 
1.99336 4.56782 1.80536 -0.465796 -1.14065 -7.78131 -14.2488 1.24897 -0.918326 
-1.6168 0.219658 0.900502 -1.43764 4.08413 -7.78145 2.75141 1.60716 3.12619 
-6.86003 -10.1401 -0.401627 -3.38914 -1.5736 -1.45958 -1.02529 1.07283 -0.298557 
0.018731 -2.90128 -2.29107 1.90304 1.8909 3.82727 4.86947 -3.21472 0.381897 
2.24491 0.935204 -39.285 -13.8941 -14.1425 -15.1454 -15.7219 -15.671 -8.52895 
-9.40661 -10.1824 -16.6263 -13.347 -0.0268024 -0.737086 -4.29725 -0.492617 -1.5743 
-1.55172 -8.33263 -6.08046 -15.9258 -5.92184 -16.2924 -6.94108 -6.83357 -18.4742 
0.0351377 -0.0131476 -8.86922 -1.1094 0.254087 -1.71276 -1.92404 -3.83761 1.67871 
-1.85774 -0.15921 -5.04675 -3.12812 -7.39829 -6.51237 -13.2879 -10.2973 -3.75818 
-5.75788 -1.53702 -1.25678 -20.4805 -16.0666 -10.4583 -28.2089 -23.0164 -20.7325 
5.09091 5.24823 4.91613 -0.578167 -0.221878 0.37872 -0.337964 0.171104 -1.59877 
-13.1195 -8.57749 -15.6927 -7.75046 -12.7139 -13.3119 1.73235 -5.82804 -11.5206 
0.49612 -5.85412 3.42296 -1.58475 1.11897 -1.87999 -9.91956 -14.9642 -11.6641 
-10.2372 5.25575 3.37702 5.25328 3.64486 3.47582 5.18677 5.98407 -19.0707 
-0.102375 -12.1866 -17.0532 -1.16308 -1.32858 -20.4186 -19.6239 -17.4473 -19.7354 
-0.326311 0.00570316 0.359475 -0.440627 -14.9818 4.4927 4.05185 -7.39692 -7.84851 
-15.4443 -23.3524 -24.4117 -8.57125 -2.75399 -4.34048 0.153635 -0.257297 -8.20812 
-0.948729 -12.0909 -9.60379 -1.97973 -0.415804 0.0643603 0.342288 -20.0829 -2.26667 
-5.7735 -4.33415 -2.08683 0.571045 0.121741 0.507414 -0.0570864 -5.78419 -4.81742 
-4.66484 -5.63896 -0.338051 -0.250857 0.0469178 0.370845 -0.816146 -17.0898 -11.9549 
-14.9506 0.775968 -4.3999 -5.71272 -5.80779 -6.92983 -14.0921 -6.19932 -19.2108 
-0.112078 -0.0821258 -0.36006 1.48001 -13.8252 -0.24155 -0.308459 -1.09762 1.50549 
1.25072 5.42245 4.65172 5.36457 2.38696 -5.39084 -4.56577 -4.83449 -4.86484 
-12.821 1.40191 2.61508 -6.42081 -5.24435 -4.51063 -0.025351 -28.8492 5.06849 
-24.4179 -6.28917 -7.05838 -17.4315 -8.91419 -7.2547 -7.81763 -7.24986 2.37604 
-13.194 -8.43705 -7.05702 -17.5731 0.316651 2.57127 -2.58759 -35.6568 -12.9829 
-39.7515 -5.66408 -6.63549 -7.62236 -6.98356 -7.14637 -18.0002 5.09907 2.65812 
-3.52944 -2.31849 -2.20071 -3.12953 -2.67881 -0.0578203 -2.78155 -1.16307 -6.63895 
-3.51717 -7.7895 -1.84771 -9.50139 -7.37049 -7.89293 -8.07178 -1.74972 -1.09137 
-1.69614 0.408604 -3.34838 -4.31431 -2.1419 0.485235 -0.257875 2.96587 -0.510007 
-0.197152 0.307021 3.20162 4.17058 2.41151 4.43535 1.98493 2.12305 -0.18563 
-0.636635 -13.4794 -14.4784 -0.36399 -0.0149486 -0.215596 -12.4488 0.0534362 -10.7841 
-17.1897 -3.19033 -14.5573 -21.2758 -25.7762 -19.876 -14.9663 3.43376 -0.0999825 
0.392194 2.58502 4.2742 1.44201 -7.95418 -0.683113 1.94626 -1.45687 2.49457 
0.247213 0.213063 -6.10263 0.224209 -0.208295 -8.81532 0.184313 0.153669 -8.5632 
-2.18358 -1.30687 -7.31091 5.446 3.88601 4.80032 4.39664 -14.6954 3.2909 
4.42004 3.49467 -1.70442 -0.119118 -1.06448 -3.24792 -2.94899 -2.69491 -6.94022 
-7.64246 -7.76502 -1.77283 -1.53653 -1.31943 -0.980346 -1.83944 -9.9629 -21.4019 
-0.625929 -6.30155 -14.492 -37.3264 -27.7851 -32.5458 -22.6871 3.27101 2.90415 
4.98818 1.10779 0.417293 -3.52857 -5.65141 -1.49611 -1.22722 -0.136309 0.8051 
0.547512 1.67528 -0.101468 -1.36246 0.255918 -2.15842 0.199155 -7.40104 -1.75096 
-4.01257 -2.46491 -22.8813 -0.592158 -15.3438 -18.499 -14.7369 -15.4025 -6.97397 
-8.1134 -8.32429 -8.59648 -8.44295 -10.6724 -16.9479 -9.03644 -7.04651 -7.60128 
-0.189591 -1.21053 -0.549271 -0.335339 0.217731 2.35955 -1.09417 3.29462 1.41416 
-2.13257 0.520605 0.49715 3.13828 -2.38576 -3.52731 -5.15694 -21.5064 -9.30599 
0.325222 0.376671 -0.0550969 -1.24418 -1.16656 -1.32032 -1.22036 -1.28934 5.2538 
5.11496 5.3537 5.4041 5.27919 -3.80686 -4.06937 -4.23409 -2.94597 -0.49869 
-3.07712 -0.812719 -4.31512 -6.82653 -0.760973 0.690346 -2.02053 2.55117 -2.29899 
-1.49875 -4.66864 0.109821 -4.12571 -0.806029 0.468218 -0.798617 -8.75152 -7.61315 
-17.6196 -11.157 -8.9278 -28.6449 -8.60643 -17.9245 -14.8969 -9.34669 -1.94389 
-9.19293 -18.1151 -23.3816 -3.16957 -10.9146 -2.58565 -15.3241 -15.1433 0.383565 
1.11635 -3.1406 -4.68149 -9.13226 -24.298 -10.9828 -1.0422 -1.49752 -0.56706 
-8.07294 -6.56515 -3.95816 -4.27567 -4.73057 -4.4773 -1.49393 0.911446 1.49978 
-1.62504 -0.797955 -1.38327 -17.4976 -0.209853 -9.66601 -4.80873 -2.14138 -1.07705 
-30.0463 -10.6086 -9.30435 -9.63285 -7.75546 -4.92089 -5.95715 -1.01966 -1.18153 
-8.41761 -5.64888 -2.87318 -0.269069 -22.3427 -12.6668 -0.022261 -7.93026 -3.80321 
-1.72811 -6.43044 2.65779 0.488674 1.59171 3.83527 -16.2311 -13.4607 -0.208476 
-13.9788 -1.41165 -2.76878 3.57615 0.139283 -1.71888 5.90558 0.148087 -6.22445 
-8.42501 -13.484 -14.9191 -4.81445 -4.45193 5.16222 4.88655 -0.679134 -0.173504 
-0.630674 -13.2376 -0.67096 5.11449 3.47845 5.70269 -1.95655 -0.39146 -1.60093 
-13.1572 -1.46207 -0.2838 0.163957 -0.767156 -0.233715 1.93423 -1.16879 -1.22349 
-1.28072 -1.55864 5.68666 -1.82216 -7.28576 -8.78158 -5.7953 4.32039 4.68927 
4.9645 4.10163 4.74326 5.94126 5.77223 3.6998 2.62661 1.54925 -0.305283 
-3.35005 -2.83694 -20.3607 -20.1734 -23.8063 -25.8226 -10.0242 -7.08903 -4.20054 
-3.29095 -2.92211 -2.26879 -5.75851 5.49228 -2.26075 -0.400708 -2.57878 -12.6037 
1.24382 2.47408 0.751927 -4.88819 -5.6958 -5.30047 -4.94814 -5.24965 -23.1578 
-14.722 -15.2609 -4.89312 -2.40283 -1.2627 -1.24096 -5.75653 -8.12982 -5.42309 
-1.8595 -0.896659 1.38249 4.68459 5.49143 4.92961 -4.08063 -2.68118 0.556091 
-0.882497 -14.5135 -29.7246 -27.4485 -10.3819 -9.77991 -6.60575 -8.27981 -9.82595 
-0.991854 -8.13258 -8.69056 -7.82269 -6.70888 -4.34671 -2.73932 -2.90471 -2.77693 
-16.9139 -16.5219 -19.6167 -20.1807 -4.84431 -14.6735 -0.563062 -0.928525 -6.9779 
-13.053 -1.64419 -1.05961 -1.71451 -1.84 -17.4339 -10.1452 -25.3549 -6.57077 
-8.06493 -15.1662 -13.6161 -14.6608 -9.61613 -26.8248 -0.0585375 -8.06739 -15.1766 
-4.96803 -0.421004 -0.762351 -0.277917 -3.37907 -4.10904 -0.206123 -0.494326 -1.42983 
2.25216 2.48066 -6.83845 -13.6006 -1.30515 -1.37478 -1.10158 -1.1576 -1.1851 
4.13226 5.45888 5.71464 3.7422 5.1927 -1.02678 -0.48516 -6.63332 0.197332 
-0.118468 -1.87993 -7.72119 -6.74287 -7.7988 2.21641 1.85056 -21.4179 -19.0224 
-1.33855 -0.216621 -7.10801 -19.0587 -13.8124 -18.9265 0.296967 -0.151544 -2.41531 
0.0547585 0.108826 -0.918133 -0.331449 -0.327975 0.39867 -7.04159 -7.32658 -14.8393 
-6.36881 0.0800095 -3.16943 -1.23341 0.965468 0.184805 -0.584335 -0.098423 0.621121 
1.20358 -2.37794 -15.2675 -21.3337 -15.397 -13.4072 -5.58213 -7.35219 -10.2292 
-13.3537 -10.5268 -10.7136 -11.6509 1.00304 0.633568 1.49958 -29.2588 -5.47417 
-12.6552 2.10485 -7.91123 -7.70323 -7.87332 -7.53703 -7.64257 -7.01357 -7.26601 
-7.57255 -1.68255 -29.7792 -32.6784 -26.0439 -2.7142 0.529543 -3.91878 -11.8056 
5.49435 -22.5661 -8.31192 -8.12324 -7.47009 -8.28788 -1.62243 -0.821243 -4.55742 
-5.89894 -0.0517728 -30.3882 -32.0168 -37.2247 -26.6292 -20.7819 -3.41891 -0.995574 
-0.68363 1.20173 -0.395505 -0.66148 -1.64004 -0.573398 -2.10524 -1.50016 -1.64041 
-3.14809 -1.17864 -1.88523 -3.25186 -2.48948 -2.10659 -3.64271 2.12667 -4.01269 
-20.6334 2.61443 2.34244 5.26482 3.42141 4.44273 3.71295 3.28006 4.46456 
4.79249 -0.664695 -1.45111 -3.93768 -2.86135 -3.77341 -34.0784 -33.9184 -25.5592 
-22.9383 -23.3209 -15.3056 4.03262 -10.3588 4.64825 -5.07759 -0.742175 -0.458418 
-0.383784 -0.193884 -0.636376 -0.480789 -2.6133 1.05254 -11.9296 -30.1804 -15.2329 
-0.245561 -26.245 -23.8783 -0.109332 -0.548946 -0.391638 -0.383314 -0.60388 -6.9061 
-0.179811 -6.66718 -15.751 4.42654 -1.78849 -1.48509 -2.5443 -0.224498 -0.219944 
-0.228008 -3.68168 -6.95471 0.803158 0.638431 -1.42165 -0.923912 -37.7283 -17.9148 
-27.3326 -17.4048 3.352 -1.33247 0.0842427 -1.32485 1.28249 -1.30907 -0.0122459 
-8.99291 -7.29142 -17.8449 -1.15486 -3.46524 -0.405473 -5.34661 -1.40862 -13.0349 
-17.5631 -5.24898 -9.12044 3.74738 -0.164251 -2.97167 3.30115 0.714558 -0.69534 
0.579947 0.354098 -2.63972 -1.57658 -0.918255 -8.73299 -26.1374 -10.8291 -11.1558 
-20.5829 -7.01094 -7.36516 -7.40411 -9.93968 -7.41127 -4.32668 0.0409166 0.063553 
0.270739 0.347491 -1.53381 -8.14331 5.8283 -6.42222 2.29091 -0.0595143 -0.237742 
-0.257599 -2.95511 -0.615617 1.62858 -7.53569 -7.74997 -1.36825 -1.29998 0.607722 
1.14358 -1.37929 -17.764 -5.23245 -18.2208 3.11162 1.65508 3.02921 -3.98142 
-7.79816 -2.68871 -3.9774 -0.315009 -0.171515 -0.0703443 -0.428818 -0.112592 -2.98547 
-2.1034 -2.63924 -0.933699 0.424479 0.179458 0.487318 -1.21909 -10.1161 -1.71692 
-0.142529 -7.32079 2.54405 5.11346 -3.48854 -13.929 -2.05578 3.55681 -3.14276 
-0.865979 -0.600285 -0.761242 -0.77296 -12.6658 -15.1014 -2.34559 -21.0525 -13.9702 
-0.947294 -7.50859 5.87638 -7.78178 -7.77217 -8.05003 -5.09872 -3.17505 2.25012 
-0.43423 3.03758 3.68765 -0.173318 -0.0215905 -1.30244 0.26151 0.141018 -11.3469 
-8.30951 -8.64589 -19.9607 -10.023 -1.1439 -12.9436 -19.0501 -2.84276 2.84334 
4.82554 -3.70819 -2.60762 -0.459245 2.11509 -5.15455 -22.461 -14.8364 3.82642 
4.35882 2.29259 4.50248 -1.37857 -3.44002 -6.56919 -3.35043 -9.92459 0.054882 
-5.40925 -2.16207 -2.86988 -2.74482 1.46675 -4.35145 -1.6769 2.11297 2.93524 
2.40956 4.25688 -4.1666 -6.23504 -11.9382 -2.85508 0.468495 -0.259608 -1.46279 
2.41251 -2.87323 3.33452 2.59472 4.67409 -2.2576 -6.30546 -7.61351 -4.80451 
-7.47737 0.0384727 0.00539789 2.14093 -10.962 0.268294 0.973622 1.46049 2.11754 
1.68398 -17.0817 2.46859 -0.182516 -45.4667 -12.6224 -30.4612 -19.7778 -6.58335 
-7.06035 -6.87099 -16.7021 -2.54551 -0.264178 -0.0444602 0.203826 -0.159953 2.74165 
-0.732672 -0.72813 0.752649 2.76993 4.95619 -0.688128 -2.96596 0.0646859 -3.16027 
-2.98542 -12.6132 -4.36755 -15.9813 -12.3048 -9.30425 1.83939 -0.0536686 0.437062 
2.99107 0.00083424 0.53516 -0.809566 -4.91686 -15.2328 -12.0563 -10.2731 -6.34732 
-8.82148 -2.93966 -12.867 -5.62779 -0.163917 -7.44631 4.73012 2.18696 -0.247262 
-5.10672 -2.60624 -0.44598 -2.51608 -2.48956 -2.66755 0.608918 -1.80781 2.18811 
-0.248585 -0.373827 0.382396 -2.60935 -5.3641 -7.90539 -7.19576 -6.18312 -7.14408 
-7.79686 1.30263 0.232729 2.69031 3.07689 -2.05749 -0.885495 0.160051 -1.2192 
-0.707499 -3.06957 -28.259 -12.5029 -2.18576 2.43724 1.20029 -1.5199 2.99874 
3.04756 -5.07923 -6.54867 -7.92513 -9.48726 -25.4179 4.41571 -4.79477 -0.0665427 
0.320287 -0.202002 -1.04501 -1.48016 0.116563 -9.47593 -40.2138 -28.3053 -8.20007 
-7.78957 -7.85084 -7.47754 -7.39843 -7.79733 -8.84607 -23.5032 -27.2206 -0.058055 
-1.82377 -14.4617 -4.97311 -6.10242 3.21435 -5.92461 -8.78003 2.08106 -1.36967 
1.99846 -1.31477 5.7865 5.11862 5.46513 4.9791 -20.1035 -37.059 -40.4052 
-33.5683 -29.1166 -41.3614 5.36715 -1.42271 3.74932 -2.59784 3.05883 -1.08993 
-8.88013 -9.74045 -18.0623 -37.4179 -13.2744 -9.89535 -6.41345 -3.50189 -10.0435 
-7.07244 -2.36292 -2.14296 -6.80479 -4.39696 -2.27593 -2.25746 -30.349 -30.5747 
-39.1108 -26.1158 -28.5281 -20.7779 2.71546 -2.6366 2.6933 1.0503 -14.0696 
-9.79118 -9.87782 0.305353 -6.00579 -18.6461 -14.8735 -1.62977 -1.58111 -4.19904 
-3.31567 0.242664 0.871609 -7.12746 -6.67917 -6.89593 0.919568 3.93333 -1.14247 
2.62755 4.34957 -11.5973 -11.8935 -6.96568 -8.0471 3.66822 3.77082 4.09262 
-1.58286 -1.61348 -1.90794 -6.70448 -19.2177 -0.461332 -12.4192 -3.73861 -8.21718 
0.849903 -3.54708 -3.13782 -0.603692 3.04322 0.828281 0.869375 0.787992 2.56129 
-0.927673 -2.11707 -4.7522 -8.00982 -7.27921 0.580616 -2.52995 1.31327 0.0991529 
-2.34272 -3.28404 -2.49867 0.757774 -1.9685 1.11319 0.538013 -0.316364 1.92785 
0.297409 1.68044 4.04625 2.67485 4.31244 4.99561 -6.83657 -4.95845 -3.8258 
-21.1004 -7.59006 -8.43272 -8.44009 -0.0971246 0.621787 3.24908 -0.226312 -2.89567 
-1.16735 4.58963 3.03969 -1.50924 1.90557 3.6318 0.192336 -7.25447 -0.326836 
-0.223245 -0.441966 0.200067 -0.266666 -7.16878 1.77452 -1.45845 -6.17598 -4.85089 
1.60371 1.74559 -6.45761 -1.70431 -7.27488 -7.04499 -0.924708 4.5954 2.05994 
2.47434 -6.98517 -7.32957 -7.00406 -8.05364 0.38376 1.78533 0.312408 -2.48079 
4.88561 0.0813585 1.75008 -7.32922 -7.54675 -8.03538 -8.22918 -24.6148 -7.95704 
-13.4103 -15.984 -8.75338 -13.6087 -17.8151 -19.6565 -21.4403 -7.18148 -11.245 
-17.7238 -7.74903 -15.842 2.43241 -4.21084 -9.77332 -2.73416 -2.01945 -2.81806 
3.17252 0.236031 0.0374401 0.21479 -2.25045 -2.05362 0.574647 -0.760246 4.49001 
3.28825 -1.25118 -2.12695 -11.4724 -15.3843 4.47342 -0.130215 1.3402 -3.23543 
-2.25162 -8.24726 -24.4262 -3.32319 -7.18559 -6.89876 -3.99769 0.0923584 -1.98168 
-1.51292 -1.56465 -2.20871 -0.869894 -1.01132 -0.135377 -3.09113 -15.7455 -22.1062 
-17.0928 -22.267 -0.918549 -4.16762 -1.14734 -0.0763341 -7.68808 -0.277906 1.96335 
3.01811 -15.6302 0.15715 -1.04094 -2.65572 -1.18573 1.48227 4.24827 -15.9838 
-7.22766 -12.519 -18.7205 -3.74695 -26.0557 -18.929 -9.60629 -9.4514 -17.4978 
-10.0299 -12.751 -12.0688 -5.29051 -3.59165 -1.0818 -0.963848 -3.25767 5.55568 
0.418897 -17.2674 -13.2728 -2.2311 0.638486 -1.6092 -4.0001 -3.56044 -4.34017 
-3.9119 -8.89137 -10.9825 -21.2445 -21.1553 -5.20209 -10.3397 -9.87933 -7.81118 
-7.68424 -7.91006 -3.76136 -4.38833 -4.1623 -3.84989 -4.25384 -2.61548 -1.63837 
5.52481 5.90865 -18.2235 -18.6272 -18.3666 1.10654 1.39028 1.87584 -5.95195 
-15.5029 -2.36006 1.43541 1.48636 -0.318521 0.955547 3.04663 -1.45073 3.07661 
1.02131 -1.90846 -20.7837 -7.30582 -0.339712 1.68118 -1.77163 0.655886 -0.742741 
-3.32102 5.19195 1.2353 -6.29831 -6.97271 -5.66802 -3.42408 -4.57769 -3.55246 
-0.510558 -1.00283 -0.932535 -13.7878 -9.1487 -3.28999 -7.7665 -2.78552 -6.43662 
-9.60985 -6.02545 0.150019 -12.1955 -8.88952 -22.0239 -12.2142 -22.0699 -28.5191 
-23.638 -2.52618 -30.5782 0.872805 1.31362 1.02661 -1.33814 -7.60152 -7.30001 
-8.10351 -7.81099 -17.6525 -7.30493 -5.11497 -3.7089 -2.21217 -2.64822 -1.83 
-2.22971 -1.14566 -1.11859 -8.10897 -8.25792 -2.4796 5.31349 4.7685 4.86846 
5.62347 4.35846 4.69933 -36.9328 -21.0689 -29.9044 -4.09007 -12.4631 -13.1959 
-25.8056 -26.597 -21.9837 -24.0014 -3.16044 -2.65266 4.29475 2.89574 3.94358 
3.54415 -0.244638 -0.0903348 3.59104 4.22977 5.16303 4.71122 4.85683 1.42874 
4.45754 -24.3762 -13.9633 -20.7343 -27.8726 0.619773 -2.07906 1.58338 -2.44318 
-7.88673 -3.53622 -3.962 0.0445669 0.451375 2.37936 2.32728 4.07587 2.62996 
-2.27706 0.563267 -9.10923 -15.8513 1.5923 0.428343 -1.0492 -3.18434 -8.20552 
-10.5665 -8.28679 -3.65802 -5.26717 3.00151 5.1996 -0.0243587 -0.652186 -1.25713 
-0.380336 -2.7577 -1.28929 -1.14591 -2.01934 5.51701 5.15656 4.84445 5.72918 
5.60078 -1.72778 2.64217 0.52312 0.115954 2.24548 3.21947 -0.036969 -3.06736 
2.83779 1.85244 -7.64742 3.63681 3.72171 -0.694996 0.147641 -2.28194 -1.3557 
-1.885 -13.3828 -15.4222 -13.2231 -0.981507 1.86623 -2.44013 -1.24725 0.213184 
3.72461 0.869169 -6.63468 -1.71152 -0.0096565 -18.8763 -22.1649 -27.9954 -4.5643 
-2.02125 -1.45128 -0.633995 -8.46481 0.58111 5.16659 -1.46533 -9.51209 -3.41229 
0.641097 -1.92592 -1.52775 -0.681918 -0.802202 -4.09407 -4.10104 5.20034 4.70603 
3.92162 -11.5663 1.08285 -17.0908 -16.0747 -13.3401 1.46833 3.2539 -1.04244 
-1.98829 0.0297746 -3.1772 0.00562996 -7.15599 -4.80425 -1.94102 -2.51936 -2.98679 
-3.3474 -2.33356 -2.33807 -1.04034 -5.47571 -27.3843 4.22126 1.79863 2.70417 
5.52517 4.60019 4.22263 3.03246 1.05468 -2.44714 1.01767 -7.17521 4.97051 
-29.0111 -23.6143 -18.2843 2.70975 4.29441 -12.0485 5.01953 2.64843 -0.700244 
-0.277344 -12.4299 -18.0352 0.335327 -12.5584 -9.19355 -6.35519 -4.72226 -7.34807 
-6.11271 -3.48375 -4.83427 -7.72669 -7.47261 -7.83822 -1.55643 -6.65414 1.71648 
0.134628 0.451302 0.11881 -2.71964 -0.191894 -1.35853 0.820772 2.43869 2.02524 
0.267601 5.25602 -12.786 -12.8647 -5.76803 -0.767611 -0.491364 -9.26291 -3.62481 
-1.03291 -6.3698 -0.0160045 1.37131 -0.145011 -2.0032 -7.72827 -3.27116 -8.1924 
-6.34566 -4.09653 -6.84771 -7.72524 -7.29071 -11.0739 -7.82929 -2.03958 0.480606 
0.683805 1.05557 -15.6951 -18.5024 -15.135 -5.76887 -0.00259472 0.740748 -6.27199 
1.59726 2.54499 -6.56001 -6.75757 -6.93616 -3.63145 -26.9141 0.0720472 -1.29797 
-2.224 5.52038 -1.29962 0.00965656 -1.47023 -1.68415 -1.98869 0.608677 -1.84441 
-6.59736 -5.96832 -7.79075 -8.49935 -12.4554 -4.57152 4.00449 -1.38914 4.58256 
-1.75569 -7.9453 -5.80458 -6.61103 -6.55063 -4.13486 -4.56996 -5.01321 -2.12842 
0.629386 -4.63132 5.20659 5.50189 -0.719703 -19.8568 0.234548 -24.7104 -1.77069 
0.322174 -1.58246 2.83944 -0.137574 5.53039 5.09856 5.48859 -0.324343 -0.343391 
-0.423292 -2.43566 -0.199801 -0.359204 -1.45537 0.417343 -0.70184 -0.0938093 -21.9809 
-0.121559 -2.43205 -2.91367 -1.48646 -4.09354 -8.38575 -0.286518 -9.406 -6.5341 
-6.88428 -6.32346 1.20725 0.580161 0.71321 -7.20339 -1.07646 -3.22725 -1.33042 
-15.449 -18.5293 -14.7633 -11.431 -13.3115 -0.661543 0.0463995 -0.393798 -1.36927 
-2.506 -3.99629 1.65584 -0.411908 -5.26369 -3.38863 -5.52116 -1.12704 -5.96661 
-0.773897 -0.0480095 -2.31356 -6.1506 -7.04589 -7.70861 -6.05647 2.55 2.05649 
-5.1713 0.559829 -1.28611 -4.19475 -2.79271 -1.14161 -1.28001 1.70217 -6.67282 
-7.03313 -7.16905 -5.34017 -4.10529 0.0522684 -1.10308 0.302739 0.259447 3.52022 
2.35069 -0.484541 -9.57796 -6.61731 -5.5872 -9.37285 -8.97545 -8.15546 -7.87503 
-7.7085 -7.45989 0.025226 -7.29982 -2.54834 -2.96499 3.35748 -0.86802 -1.57171 
-1.32051 -1.72919 0.78147 1.8579 2.32706 2.56901 0.841262 -3.97373 -0.897174 
-7.92319 -8.30507 -0.0326839 -10.2537 -11.6766 -5.05431 -3.24671 -35.5394 -19.1489 
-18.9425 -8.35291 -10.2239 5.65693 -4.64876 -0.478056 -0.260839 -6.47968 -17.7894 
-20.1566 -8.80711 -0.0508404 -1.01028 -0.562024 -0.280364 0.00422746 -19.6059 0.0753347 
-9.12521 -0.658745 -3.76404 -3.34447 -4.87428 -6.04029 -12.8389 -10.2175 -19.0028 
-0.314879 -13.8671 -0.0838312 0.189029 -7.45042 -3.38813 -4.17039 -1.56036 -6.5702 
-7.00651 -6.46498 -4.85516 -0.273171 -3.93349 -1.62188 -6.15689 -0.381155 -0.11951 
-4.35205 -6.98106 -7.85464 -2.49762 -8.70796 -8.73866 -2.43349 -1.53512 0.0367529 
-1.40109 -0.75455 -6.94683 -7.04946 2.51173 3.36062 2.73572 -3.98046 3.33408 
-2.98583 -5.68193 -3.75287 -9.63714 -0.0495213 -8.56915 -1.89593 -1.90186 -6.18361 
-13.9918 2.00447 0.0405037 1.16689 2.77715 -25.9413 -26.054 -28.8953 -26.9533 
3.05912 1.32288 -6.99787 -0.823307 0.0735884 -1.21698 -1.05369 -5.51996 -0.555573 
-5.67159 -6.24489 -10.4449 -1.38172 0.289279 -1.39389 -7.4676 -7.82768 -7.60479 
-7.97273 -8.04675 -0.964064 0.08102 -1.95077 5.5279 -8.42859 -20.2263 -28.884 
-29.8193 -7.74471 -1.04592 -4.69269 -5.84777 2.50145 0.876419 2.66317 1.66091 
-1.75107 -4.0356 0.328397 -7.39812 -2.12052 -1.20307 -7.42385 -0.199558 -23.2234 
-25.8088 -26.1474 -26.637 -26.2855 0.855543 -2.04473 -1.92401 0.999076 0.0370107 
0.380154 0.0306732 -0.195939 -6.78699 0.0243241 -1.41749 -4.13142 -3.97661 -1.0821 
-1.51582 -11.3238 -6.50897 -0.465188 -0.178446 -4.00259 -3.32509 -4.44701 -4.70368 
-2.74641 -4.15162 -7.39001 -8.00756 -7.92868 -7.56155 -5.78498 -4.01044 0.410319 
1.4697 -20.3379 -27.07 1.34966 -1.38683 -0.311256 -2.51947 -5.11973 -3.85083 
-3.63085 -6.23177 -1.94686 -8.29448 -2.05573 -10.3995 -3.31981 -8.84686 -0.229919 
0.177974 0.0153969 0.0211894 -0.314769 -24.1003 -8.27891 -21.525 -8.18585 -0.865871 
0.780227 1.4441 -0.300676 -0.170385 0.476811 1.02091 -8.17062 0.344763 -2.34758 
-13.1515 -15.4502 4.78505 -0.867311 -8.51439 -8.08957 -7.08908 -0.0351751 -5.66073 
5.75373 2.39557 2.30323 1.79206 -7.15898 -0.546938 -4.7525 -2.88191 -8.13519 
-12.4512 -0.754291 -0.500069 -0.410779 0.22189 -1.65788 -0.229814 -0.183535 0.440086 
0.199865 0.0949912 0.0504068 -5.05087 -2.11385 -2.29698 -7.52975 -10.0241 -0.0937217 
-8.86355 -10.2141 -3.29979 -0.304188 -0.22605 -0.392897 -4.90153 -14.0471 0.553448 
0.146151 -4.44884 -0.0743629 -10.2082 -6.94955 0.212653 0.216406 -1.71651 0.891485 
-5.69376 -10.3521 -6.44039 -24.2231 -27.0326 -26.3201 -13.3943 0.0479779 0.00705609 
0.158298 -0.331605 1.72727 -30.1736 -27.6008 -19.2975 -20.09 -17.3587 -26.8641 
-22.217 -7.3058 -4.63189 -36.3322 -30.8212 -39.6525 -0.198379 -0.139525 -0.128933 
-15.4793 -15.5134 -10.4483 -14.9403 -19.7692 -7.63695 -2.6227 -12.5076 -15.9714 
-21.5384 -3.05657 -12.9869 -19.9997 -11.2387 -23.61 -0.855225 -11.627 -1.49147 
-7.2206 -7.69885 1.41244 -0.992258 -0.195236 0.238707 0.244342 0.522479 0.0358075 
-7.84901 -5.15886 -11.6474 -2.61487 -4.1878 -7.29072 -23.6497 -22.3809 -10.6668 
-15.4238 -10.0865 -15.7757 0.149557 3.43566 3.32812 3.89896 2.30705 -3.62942 
-2.37045 4.37858 -3.98202 2.56413 -12.1352 -1.19075 -7.22607 -7.9175 -7.46755 
-7.87369 -0.878299 -5.22315 0.457637 -1.27574 -15.9458 -0.824958 -9.25959 -9.76826 
-9.10142 -9.91696 -9.27249 -0.804479 -0.589106 -0.984606 -1.20573 -1.14782 -1.19047 
-1.18614 0.67844 -7.52504 -8.00597 -8.75712 -2.92764 -11.0803 -15.2262 -16.3451 
-13.4419 -14.626 0.330533 0.0491345 0.443721 -3.84815 -3.28072 -3.42004 -3.57412 
0.47342 -0.617167 -3.94832 -5.19761 -4.81336 -4.47426 -0.965979 -1.29311 0.0207277 
-0.0856398 -1.2137 1.23332 0.0149042 0.240301 1.12035 0.419811 -4.09351 -11.0884 
-15.0711 -16.8538 -3.31194 -7.19073 -6.22239 -7.43625 2.91742 -13.3473 -15.1029 
-0.258374 -0.236354 -21.7708 -20.7639 0.0231455 -0.162954 -0.257244 -31.2062 -36.5762 
-30.7519 -21.347 -16.3077 -27.7782 -11.7156 -28.0103 -2.24023 -1.34771 -4.1513 
-7.44668 -2.52031 -4.33224 -5.3127 -8.03985 -6.87492 -1.75782 -5.78996 -5.11339 
-10.9594 -21.7077 -14.859 4.18436 4.14149 3.81572 -0.845739 1.67426 5.65127 
3.23285 5.42104 5.45925 -3.09613 -1.10924 -13.4041 -4.32816 0.135001 -0.0192683 
0.183146 0.353208 -23.1361 -11.2791 -15.6609 -4.32553 -16.7487 -3.40043 0.845065 
-0.111592 -10.1695 -10.3916 -8.81602 -14.2888 -6.64745 -4.74843 -7.97103 -2.46946 
-2.03482 -2.36585 -2.81899 -4.60396 4.25034 3.84141 -9.08077 -11.1235 -4.86407 
-17.5974 -4.10638 -8.19861 -8.89718 -11.5067 -5.41301 -8.78817 -4.55096 -5.71602 
-6.74498 -6.51056 -6.31362 -14.9795 -15.2034 -8.88112 -20.7804 4.73629 3.05876 
-1.23819 -1.27194 0.387237 -5.64748 -4.61984 -1.71417 -2.21464 0.362012 2.46402 
1.43464 2.90778 -8.4219 -1.0975 -1.97862 -1.88347 -2.73887 -6.96863 4.01068 
4.70713 -6.24152 -1.17113 -0.601814 -0.210621 0.212362 -1.5034 -0.184544 3.4373 
4.5767 6.06968 4.54933 -22.9939 -26.5754 -19.2704 -0.507733 3.86626 -20.2001 
-13.7369 -9.6806 -3.70252 -20.0875 -7.88345 -0.182586 -1.5099 0.573591 0.749651 
0.126448 -2.89486 -0.0776724 0.684382 0.834141 0.374234 1.39797 -6.24052 -4.3065 
-5.93522 -6.21191 -10.6631 0.605002 -11.9593 4.93546 4.75048 5.37787 -7.95258 
-0.757462 -6.60449 -2.1897 -1.53562 -0.452027 -25.4172 -20.62 -2.34966 -4.22415 
-0.64417 -7.38407 -0.548301 -8.13139 -4.2858 -8.16034 -4.64762 -6.99776 -1.00967 
-0.84688 -0.229802 -0.579063 -0.840686 -0.28057 -0.276757 0.0226508 -1.12833 4.29381 
5.06845 1.69206 3.94922 5.39333 -3.18609 -5.07169 -3.38667 -1.17688 3.06998 
1.79451 4.3711 4.89273 -7.34829 -7.18235 -6.98332 -0.108294 -0.252356 -0.0942754 
-0.514472 0.152251 -0.175497 -0.330011 -0.246782 -1.02041 0.275354 -1.10005 -0.120107 
-0.120311 -3.01772 -1.70803 -22.764 -0.537591 -17.0522 -36.4044 -37.235 -18.7721 
-5.96051 -4.58833 -4.62433 -5.50288 -5.42672 -5.20671 -11.9119 -2.87791 -4.08688 
-5.09631 1.34464 5.21678 5.59875 4.98303 4.57249 5.33011 5.40507 -13.2138 
-1.23069 -14.4494 -3.36541 -2.28683 -1.60207 -1.84093 0.337966 -0.394479 -3.49338 
-15.8104 -26.1565 -36.7088 -24.4635 0.709963 -1.22433 0.272175 -0.773469 1.81894 
2.24762 -7.67789 -7.7933 1.45053 2.8882 1.75995 2.28066 -1.40322 -6.92059 
-8.11147 -7.9192 -7.91901 -7.25106 -0.326869 -6.1482 -1.77268 -4.30984 -2.98672 
-3.00613 -4.72315 -2.44316 -7.79539 -0.918433 -2.18822 -0.240636 -0.276562 -5.91196 
-1.38269 -1.25498 0.882847 -1.24151 1.49172 -1.59514 -16.7548 -16.3206 -7.73417 
-3.35779 -7.6775 -8.90551 -6.22312 -0.0326924 0.45235 -1.22448 0.463002 -9.54398 
-3.64192 -3.68213 -5.52081 -0.0340841 0.0375628 -0.0141985 -0.0154924 4.55087 4.92861 
-2.3946 0.0528498 2.08782 -8.97 0.298013 0.231656 -2.166 -6.03077 1.27829 
0.224802 -7.09032 -0.232913 -3.67413 -3.39029 -3.00133 -3.42709 -7.09704 -3.43505 
-2.63316 -0.545699 -0.0213841 -4.9882 -1.2249 -0.708827 4.70093 2.89586 3.14122 
5.05675 4.75344 -1.73792 -4.60506 -2.06827 -2.57533 -4.40882 -4.91586 -5.34467 
-0.674209 0.172722 -0.455562 -13.1533 -7.20661 -6.84247 -6.29625 -7.14817 -6.30677 
-7.68445 -24.3871 -7.04175 -16.6435 -0.494617 -0.169432 0.142041 4.18739 -7.89774 
-3.19317 -0.164622 -2.39791 4.02118 3.30135 4.73842 2.8521 3.3942 2.73457 
-10.4436 -6.31837 -7.7177 1.9087 -0.828221 -18.2064 -11.7044 -16.3707 -12.0889 
-3.33472 -20.4041 -18.8587 2.21346 0.852407 -1.12288 -1.62706 -5.61845 -7.70693 
-5.72507 -4.20946 -3.6326 -9.07442 0.216219 -2.38518 -4.20232 -6.88385 -6.28354 
-18.1454 -2.49722 -11.7742 -1.69017 -18.9889 -13.6984 -0.235949 -0.367372 -0.349364 
3.7955 -1.67787 -1.83735 -1.70083 -1.08014 5.38763 0.626651 1.38031 -0.113867 
-0.173423 -0.119373 1.88309 1.06271 4.4867 -10.0242 -19.8912 -22.1089 -7.84299 
-2.8355 -3.32598 -1.62846 -3.31711 -4.15799 -3.8691 5.06032 -3.8946 -10.9522 
-12.4844 -0.178645 -9.34185 -0.590762 -4.00228 -7.11806 -1.71831 -1.98272 0.112417 
-4.18266 -1.00195 -4.89633 -2.35415 -35.0582 -31.2572 -28.9221 -9.24564 -10.9574 
-0.174677 0.53337 -1.01175 -8.48772 -6.69926 -7.67509 -7.60444 -6.72553 -2.28471 
-0.132172 -0.426013 -0.472056 -0.324557 -0.270364 -7.80376 -7.42668 -7.79386 -7.89951 
-7.84995 -2.57744 0.288921 -0.954237 -3.61754 -2.58707 -3.08058 -0.229852 -3.76525 
-3.14204 -3.70164 -1.3918 -5.38431 4.90948 -11.8204 5.22928 0.596428 -17.5773 
1.81679 -6.97725 -12.4972 -0.0828863 -10.5788 -2.51047 -13.6838 -16.1683 3.321 
4.09496 -5.29058 -8.03323 -8.04879 -8.38518 -0.748682 0.263493 0.515912 -0.0460521 
-9.63789 -0.943989 -14.4453 -19.8497 -22.7995 -19.4365 -10.6384 -28.001 -32.6414 
-23.772 -28.12 -34.2048 -0.254675 -1.43964 -0.267269 0.105073 -0.971015 -0.32336 
-17.6732 -23.157 -0.501932 -0.131982 -0.531938 -2.46641 -1.38171 -9.02445 -7.32764 
-2.11637 -0.86858 -6.78042 -7.56914 -5.471 -8.45067 -9.21556 -9.20451 -12.3624 
5.07014 5.63062 -17.1244 -12.3386 -6.31477 -6.23856 -6.61861 -3.03718 -1.21183 
0.108877 -10.1065 0.595153 -16.9198 -15.0854 -21.4217 -0.139994 -3.66309 0.10395 
-0.2644 -3.80776 -1.06934 -3.14699 -3.93812 -1.93009 -2.93401 -6.34451 3.21934 
-8.50744 2.13934 -5.66568 -8.06355 -7.60299 -8.92658 -9.0488 -5.79881 3.65841 
-7.43723 0.0862561 -0.163708 -0.472606 -0.0914014 -0.250902 1.87788 2.05177 4.9863 
-22.2852 -23.1008 -16.3486 -23.827 -12.9466 -21.5264 -16.0005 -0.956255 -20.5596 
-21.9163 -20.2971 -18.433 2.05745 -1.43819 0.168552 0.215158 1.69502 0.0376402 
-0.709322 -5.68063 0.422824 -3.72108 -0.34665 0.445655 -6.94703 -6.92659 -8.95227 
-10.9035 -21.3779 -17.4525 -23.0441 -9.24734 -20.6006 -8.50555 -7.28074 -7.08973 
-6.25903 -5.30647 0.416376 -0.23669 -0.46422 -0.372132 -13.9081 -6.40208 -2.36038 
1.31962 0.658002 -6.94998 -12.3891 -0.428192 -18.5591 -7.84559 -6.98722 -7.43055 
-6.8154 -6.22035 -5.79869 -7.82431 -7.03552 -5.67095 -7.59304 -5.81412 -8.74684 
0.955886 -0.0537843 -0.161957 -0.176322 -0.139029 -3.00705 -5.33097 -4.94331 -28.5673 
-18.895 -39.8867 -15.0436 -8.3501 -8.13214 -7.20806 -6.77309 -0.306707 -0.0963097 
-0.114183 -0.112883 -0.0206553 0.930162 -0.302765 -0.224521 -7.41722 0.620727 -4.41706 
-10.2861 -1.19233 -0.118749 -6.9524 -13.3237 -1.10339 -11.9405 -10.296 -4.1358 
-0.0527695 -17.9504 0.212493 0.968352 0.00443663 -2.21007 -1.67732 -0.939341 -2.7226 
-3.08809 -0.0588423 0.509322 0.710927 -1.44122 0.886615 5.18213 5.0576 -3.70562 
-6.31809 -2.95899 -3.66193 -3.47559 -1.1335 0.422147 -0.30947 -0.809209 -8.93697 
1.2141 -5.46255 -1.14007 -31.3401 -40.1156 -32.9126 -1.59899 2.51861 -30.734 
-26.6168 2.54669 3.37539 2.63118 1.96139 -3.00143 -18.6223 -1.32686 4.21231 
3.06119 2.09613 -1.44025 -1.03832 -1.39935 0.800495 0.704538 -0.0620376 -0.0546778 
-0.177731 0.297715 0.31818 -0.153117 -0.444555 -0.585897 -0.330397 -18.5417 -20.9685 
-21.7683 -10.5633 -16.8673 -1.55062 -5.7321 -2.43213 -0.434598 -4.18764 -23.3489 
-21.3782 -3.2264 -1.71914 -28.6366 -20.7976 -31.2356 -25.7057 -14.9715 -15.3201 
-11.029 -14.5123 -31.7543 -5.42826 -2.82499 -6.21338 -2.99169 0.311059 -0.10179 
-0.179274 0.227743 2.08616 -1.38274 -0.708108 -2.54057 -11.3349 -10.4795 1.3213 
-10.3836 -0.590044 -5.08511 -1.42888 -22.049 -21.6317 -22.0236 -0.0912295 0.400971 
1.61967 0.432466 -0.489893 -2.0562 -0.109704 -0.424994 -1.39811 5.67217 5.96393 
-25.6616 -28.8902 -27.8067 -4.00698 -4.32667 -7.52094 -2.11166 -3.52483 0.822636 
-0.426205 0.774505 -0.173215 0.119749 -22.4875 -19.4138 -15.6963 -5.0567 -13.5587 
-19.8062 -22.2619 0.123654 0.00959504 -1.7774 0.186342 -0.182693 -1.44669 -7.08698 
-0.387073 5.18009 5.80553 3.80969 3.58847 -17.2148 -20.1686 -9.05919 -8.02934 
-24.3741 -16.0248 -0.262426 0.280048 -0.870528 -1.04747 -0.845554 1.11214 1.48941 
-0.775232 -5.16338 -13.941 -4.65529 -6.55219 -7.97118 -10.2718 -11.3416 -10.8392 
-3.91832 -7.62543 3.54137 0.963927 2.06384 -2.26878 2.06839 1.58578 -0.490308 
-0.678516 -19.0605 -14.4897 -20.3829 -27.554 4.4111 4.56407 2.92006 4.61927 
5.11565 -0.269329 -1.60888 0.795168 0.043019 -0.633236 -20.9502 -9.51618 1.62747 
-22.2499 -22.7575 -6.41271 -24.5563 -25.5992 -28.887 -8.54863 -5.67753 -9.01254 
-12.088 3.87535 3.31984 -2.19332 1.75106 0.628408 1.05101 5.45867 -1.3435 
0.782795 -10.5068 1.38957 0.391299 0.306428 0.171668 -0.457257 -0.805572 0.615455 
-1.38711 -0.0189686 1.1748 2.49458 2.61928 2.18259 -1.63004 -30.1646 -17.305 
-25.7812 -12.6355 -16.7621 -24.05 -23.049 -0.295588 2.77356 3.62287 2.73309 
3.03467 1.14265 0.3401 0.00482185 -5.47838 0.430114 0.0255054 0.0172366 -0.071757 
0.452496 -0.029287 0.236965 4.90806 0.379082 3.62558 1.86119 3.74026 -6.60121 
-10.5105 -1.467 -2.90312 -15.8094 1.76329 -16.7657 0.780919 -17.1996 0.0241276 
-4.72631 -3.96285 -1.17241 0.201126 -0.936332 -2.12906 -0.392783 -0.679826 -2.52256 
1.71502 1.25672 1.32161 1.64481 0.000875041 -3.51713 2.14422 -1.57632 -1.36573 
1.98884 1.24019 -0.377175 -5.30781 -5.49917 -0.511112 -2.6141 -0.910609 -0.695959 
0.180164 0.926328 -12.3249 -2.80478 -1.49726 -2.23597 -10.9399 -4.88792 -8.30404 
-9.62433 -12.4236 -3.0004 -18.6016 -8.16131 -3.19199 -12.7059 -6.90817 -6.2612 
-3.81349 -5.88235 -7.42177 -7.25748 -5.46319 -6.62757 -5.10329 -1.36629 2.04376 
-1.65721 1.58221 0.368324 2.44956 1.15765 0.500908 -5.90139 -17.7236 -13.1034 
-9.47004 -17.1585 -14.2278 -11.0466 -14.2434 -17.3946 -20.2026 -1.26342 -6.18692 
-8.76205 -6.39493 -3.2405 -2.80422 -2.13142 -6.3628 -3.26992 -2.26978 -6.85936 
-6.31852 -4.56074 -1.46145 3.79626 -1.45266 -1.31054 -1.28583 -1.40147 -1.09935 
-1.05685 -2.2647 -1.69985 -1.19844 -2.07685 -2.84732 -2.29583 -1.45391 -2.38661 
-2.86661 -0.874245 -1.42348 -2.69683 -1.96505 -1.62126 -0.595952 4.00748 1.68802 
3.12388 1.63228 1.84199 0.811608 -1.71754 -3.9661 -3.44006 -1.37294 -1.92383 
-4.66975 0.0188544 -0.303423 -2.16601 -0.468208 -12.3395 -8.86535 -2.55012 -13.5099 
-18.3195 -21.226 -7.81051 -5.058 -13.3578 -0.77609 -1.23903 0.597847 0.288489 
4.83369 4.52744 2.97689 2.98064 2.66979 3.60977 3.5314 0.527344 1.86407 
-0.141133 1.11676 -7.77397 -9.32114 -5.50841 -6.84324 -8.27797 -7.36047 -7.38609 
-7.23063 1.67564 -1.51085 -1.03857 2.58367 2.47547 2.62617 1.62686 0.986795 
0.169823 2.93585 4.80816 4.66178 2.41419 3.29698 1.57875 -10.5226 2.37732 
-17.2241 -7.25478 -7.26315 -20.5172 -11.4751 -18.118 -3.03264 -6.09763 -1.50713 
-1.74472 -1.20885 -1.33699 -1.68959 -1.67532 -1.56283 0.129359 -1.18662 -0.797284 
-9.96697 -1.30749 -15.459 -13.7301 -2.86518 -7.13325 -7.21946 5.33813 4.08588 
4.37872 4.46111 5.1742 5.7038 4.51671 4.46329 3.86917 4.84561 -15.019 
-1.93693 -14.3523 -16.2872 -8.06803 -7.58794 -8.38388 -7.29907 -7.36186 -17.3121 
-2.41752 1.09346 -3.2736 -6.28098 -0.273035 -16.2994 2.52274 -13.4821 -3.30841 
0.5381 -4.62185 -3.68553 -2.78215 -9.16245 -5.6347 -10.3686 -1.58696 -4.29247 
-7.6987 -8.4803 -7.61054 -8.10804 -7.17142 -2.49257 -2.10026 -3.62667 -1.00483 
-0.512659 -0.415584 -12.2037 -0.537401 -3.97034 -12.0642 -11.104 -5.46852 -6.66323 
-8.57828 -5.87314 -7.5488 -6.84552 -6.80851 -6.32117 -6.61043 -6.34877 -7.36386 
-6.09415 -7.38235 -6.46318 -7.12319 -7.01545 -0.989628 -9.29182 -1.24611 0.763291 
-6.92958 -4.7849 3.79229 0.674128 2.17541 2.7554 3.11181 2.70654 2.48496 
4.07636 2.11106 1.31437 -11.0089 -6.97506 -1.47897 1.65877 -1.5168 0.994937 
1.04181 -0.793115 1.76914 1.32199 0.758842 -7.7808 -5.90623 -4.8541 -5.30419 
-19.7414 -24.8354 -16.7698 -18.2306 -11.9556 -8.83521 -1.67818 -1.69968 -1.68441 
-1.26896 -1.42128 -0.916253 -1.3342 -1.19433 3.45988 2.25242 -5.64599 1.17541 
1.08765 0.47143 2.17077 -25.3175 -17.4861 -27.6379 -17.3293 -23.0689 -10.9537 
-9.35828 -21.5253 -5.18254 0.440458 1.57012 0.871383 1.01214 0.473719 -6.58101 
-6.31559 -4.55649 -7.51624 -9.55377 -8.77223 -4.17962 -7.86841 -7.56226 -8.46559 
-9.80439 -1.48911 -12.7918 1.31865 1.84067 1.21469 -0.939366 -0.265838 4.29298 
4.65087 4.19027 4.25343 3.57579 1.73612 3.38383 3.19888 2.76201 2.49461 
-0.525748 4.05333 3.47041 1.6036 4.91598 3.84681 3.40219 1.25181 0.727877 
0.744617 -1.42941 -1.38563 -5.40057 -0.762899 -1.62449 -4.85876 -1.81842 -7.61494 
-7.2967 -6.17463 -4.51896 -0.304048 -8.26369 4.10971 1.70146 -9.23429 -8.86923 
-4.58545 -1.28146 -7.55751 -4.06569 -3.28763 -4.72296 -5.60356 -5.47687 -5.22387 
0.126971 0.024336 0.0580657 -4.46127 -2.63779 -4.23052 -9.53284 -2.16904 -18.4029 
-12.878 -0.930363 -1.05351 0.487897 -3.6247 0.53344 0.484773 1.26659 -0.135912 
4.08575 4.54086 2.72577 2.66958 3.44839 4.65802 2.48817 2.89183 -3.60828 
-6.4877 -6.93773 -5.92852 -6.56288 -6.52724 -6.32348 -7.54274 0.994643 -1.25071 
1.5282 -1.51897 0.893499 2.56065 -1.01639 0.0366637 -0.11317 -0.0870289 -0.195721 
-0.79718 -0.0573242 -0.322625 -0.0538386 -0.386979 -0.227217 -1.39403 2.67159 1.96621 
-2.19885 3.47049 -9.62351 3.75949 2.6411 3.34358 -0.712902 2.14203 -1.93615 
-2.32897 0.440905 1.64003 -2.54658 -3.42942 -2.79716 -3.72955 -1.83709 -1.09086 
-2.70013 -1.46547 -1.83209 -2.28763 -1.86883 -0.0655056 0.0461457 0.169317 0.105505 
0.455308 -6.26021 -5.39229 -5.54062 -0.339186 -7.48175 -8.79634 -3.41043 -8.56766 
-8.51955 -8.69665 -7.21328 -7.24262 -8.20874 -5.92525 -8.06277 -7.24072 -6.98801 
-7.83074 -6.83632 -8.66219 -3.06087 -6.55965 -7.38808 -7.3458 -7.6001 -2.89685 
-5.39843 -2.86677 -5.09294 -6.0797 -5.5359 -5.16696 -5.8695 -6.35018 -6.72696 
-1.75137 -2.42031 -3.43336 1.87501 -1.07863 -1.92126 2.26887 -1.3457 3.28581 
-5.70752 0.137308 -0.059197 0.0969244 -0.284915 0.149143 0.0443451 0.207203 -0.486605 
0.570811 -2.82825 -2.5554 -2.38514 -5.07754 -7.19999 -5.2779 -4.32489 -5.42604 
5.26022 4.78345 4.60438 5.0134 2.06877 4.93056 4.65616 -5.44216 -11.3094 
-7.90184 -5.31722 -6.14613 -8.09916 -8.86793 -6.97397 -9.41086 -8.63824 -1.12551 
0.0828595 1.4636 -1.09125 1.49527 -0.878981 0.913621 -0.870328 -0.444313 2.17361 
2.57859 0.731534 2.10562 -0.998189 -18.0625 -17.0217 -11.9838 -16.6917 -15.173 
-12.9838 -11.1967 -10.016 -12.1616 -12.0484 -16.5593 -9.87193 -2.34484 -1.58971 
0.956541 -1.14297 -0.991686 -1.02053 -0.222931 -1.36301 0.385762 0.406062 -1.41336 
-9.6383 -14.3238 -21.6431 -14.3211 -9.00904 -9.27534 -10.9643 -11.0744 -14.9139 
-13.0041 -14.0323 3.17088 1.9685 2.37118 1.05888 1.36723 1.09768 0.385079 
0.803485 0.896471 -0.32114 -0.259694 -0.322458 -0.367102 -0.242543 -0.226139 4.921 
5.34309 4.19237 5.4011 3.24458 2.3781 -1.82498 0.0371151 -8.15324 -3.87849 
-0.80573 -0.994592 -6.48819 -7.84425 0.149946 -0.343162 -0.207269 1.25738 -6.9695 
-5.35776 -7.65718 -7.54698 -7.27173 -6.66706 -6.55349 -8.1835 -5.41759 1.69583 
1.62531 1.57955 1.38623 1.34582 1.24453 5.14231 4.97352 -3.95899 -2.85202 
-3.35535 -3.85453 -5.19891 -5.5524 -3.63796 -6.65404 -1.45403 -4.8702 -7.10873 
-1.03376 -5.29915 -2.56674 -2.31993 -3.02004 -3.0309 -2.57937 -4.25513 -3.30446 
-3.97328 -2.03637 -1.82867 -15.2879 0.0520358 -0.0183112 -0.0898117 4.4366 -0.113705 
4.71686 3.7852 5.82411 4.2082 3.5559 3.55849 4.37317 4.43075 0.421918 
3.72158 5.06279 3.96645 0.342007 1.82289 -0.111803 0.790353 -1.46466 -1.4454 
-1.40914 -1.38052 -6.12523 -6.08464 -4.73947 -4.97219 -6.12077 -5.69756 -6.14064 
-23.8279 -35.8243 -17.5378 -22.8992 -19.941 -15.8545 0.435724 1.40746 1.52613 
-1.29884 -1.17898 -1.52356 3.69887 -3.72679 -0.419291 -6.89156 -12.5263 -15.0198 
-4.71463 -4.55656 0.4937 -2.27723 -1.15736 -0.812237 -1.66485 0.483961 -0.130627 
0.0458825 2.03676 -1.04593 -0.792238 -6.73359 -9.96186 -20.1594 -6.3429 -3.9963 
-8.85658 -5.66085 -16.6225 -14.7969 -9.57657 -9.60901 -3.9184 -6.47298 0.529285 
-0.266921 1.57074 3.53243 0.269873 -2.11561 -2.9782 -2.47779 -1.94632 -1.56912 
3.96357 4.43876 3.25767 4.44694 4.25202 3.93502 4.48745 0.994213 -1.87939 
-0.163947 -0.30728 0.0395873 -6.17067 -7.94674 -4.18812 1.19511 -1.18562 -0.418007 
-8.98296 -6.8917 0.117249 -2.7662 -8.13922 -9.98826 -3.39639 -0.732071 -1.37218 
-0.360084 -1.68204 -1.69289 -1.60383 0.339861 0.837462 0.901408 0.574797 -0.83254 
0.328507 -4.22378 1.34303 1.1468 -19.7442 -17.7645 -19.4863 -5.56901 -6.17682 
-6.03367 -5.32213 -5.17841 -4.7712 -3.5407 -7.30415 -10.9544 -12.1209 -10.2915 
-8.89776 -8.97329 -10.7984 -10.3286 -1.86598 -6.88345 -5.47649 -8.04728 -6.14209 
-7.28966 -3.18616 -9.22606 0.0289113 -8.02486 1.37636 1.09381 -1.59657 0.0579364 
2.16105 1.79695 1.70726 2.10172 1.59376 3.26516 4.18267 4.52244 4.80733 
4.13616 5.08533 4.80759 5.42444 4.27338 4.88215 -2.88653 -4.25246 -4.35673 
2.15836 3.90647 2.79124 2.54291 4.03664 3.9084 2.62709 1.281 0.872959 
2.48102 -1.20237 0.6375 0.496184 -10.1781 -1.87044 -13.8268 -1.69235 -9.53036 
-1.42078 0.0269057 -1.79375 1.80603 -4.21623 2.53905 3.46244 1.96238 2.03258 
2.30745 2.37104 3.25699 3.57924 -14.4243 -7.82046 -14.0009 -19.0995 -0.211149 
-0.652576 -2.75858 -3.55247 -13.9671 -10.7642 -5.56158 -12.7813 -10.6218 -5.05516 
-2.98782 1.55445 -10.1556 -8.4998 -7.06115 -7.12552 -9.52205 -4.10332 -2.79939 
-1.58685 -3.68754 -4.28846 -4.11136 -3.58223 -7.50061 -10.2191 -4.24753 -8.50678 
-9.68546 -6.43877 -8.19254 -8.69446 -10.548 -7.30723 -12.8164 -12.4581 -1.68673 
2.00496 2.20342 4.13414 1.55995 2.02913 -11.4286 -16.8265 -18.2316 -15.0632 
-12.5406 2.49014 2.90125 2.92007 1.90889 1.83984 3.11111 2.86577 3.35992 
1.67327 -8.15912 -5.83335 -8.60076 -7.15074 -7.28373 -8.61089 -13.2996 -8.48607 
-6.23251 -0.4973 -8.25317 -0.166451 2.23829 2.74349 1.29324 1.92541 1.02423 
1.52124 1.36701 1.35703 1.12365 -0.548636 0.996981 -0.801499 -1.53981 -1.9825 
-1.51147 1.0355 -2.152 -1.41175 -0.0689314 -0.885162 -1.61378 -1.49715 -2.3137 
-10.4191 -11.0476 -15.507 -15.939 2.62751 -1.35979 -1.29368 3.14979 4.01576 
0.579471 -1.12786 -0.614989 1.47489 -4.66762 -5.16346 -4.32582 -2.50569 -1.39278 
-2.40869 3.09084 -7.97006 -8.15135 -7.95416 -7.83554 -7.93367 -7.87796 -7.08487 
-1.38477 -0.979214 1.34698 -3.16173 -1.25746 -1.11504 -0.620991 -0.543496 -0.775085 
-0.208475 -0.0832549 0.394309 -0.730271 -1.2444 0.98041 -5.3758 5.20755 -2.24443 
-0.0576495 0.14114 -0.240723 -0.0459652 -1.03506 2.39545 0.847217 -1.66879 -2.21131 
-1.49343 -1.71493 -3.23559 -2.50352 -2.71648 -1.87003 -1.96075 -1.95596 -1.76187 
-8.72658 -7.34707 -7.99697 -7.96358 -7.46553 -8.03284 0.244492 0.467656 1.71932 
1.3853 1.87647 1.99414 0.87666 4.44953 -1.42726 0.511328 -1.39386 -1.95378 
-2.27964 1.88927 1.1524 1.10282 1.8764 3.51344 4.03789 2.97753 4.83718 
4.16653 5.10106 2.88251 3.95364 4.95228 3.94555 3.41296 -1.52654 -1.62919 
-1.99767 -1.67736 -1.41846 -1.54105 -1.5374 -7.86005 -7.89717 -7.81184 -7.46449 
-7.69744 1.37911 4.67984 2.21193 3.61822 1.82206 4.50214 4.64611 2.60705 
-1.36497 3.31445 -1.60061 4.97714 3.57956 3.13588 3.89532 -1.39275 0.485333 
-0.626064 -1.27642 -4.02284 -1.68146 -2.24252 1.9227 -3.95029 -2.48736 -1.38132 
-2.16501 -1.75709 -1.48702 -1.97735 -1.97244 -7.12409 -8.44226 -7.36906 -7.09399 
-6.96642 -7.42248 -7.37667 -5.08629 -9.61171 -3.5153 -2.49887 -3.89755 -3.49879 
-3.6208 -5.02816 -3.47507 -3.93669 -3.20457 -0.528797 0.000545628 0.0266189 0.106823 
0.304295 0.161235 0.0478874 -0.0252915 -0.0351166 0.240988 0.173562 -2.92906 0.301398 
-0.498874 -5.38297 -6.60273 -3.43083 1.35886 1.28757 1.39113 1.62214 1.58616 
1.5623 2.88459 3.26919 2.94616 -3.12794 -1.26688 -1.91433 -0.56635 -3.81265 
-0.362013 0.0249434 -0.445285 -7.03398 -7.38399 -6.79195 -7.85441 -7.79757 -7.23942 
-7.8418 -7.84386 -6.96124 -6.9068 2.22663 0.173799 -0.195897 1.47368 -8.98984 
-22.2772 -1.32036 2.16699 -1.07029 -1.45774 0.203169 0.00271946 0.662296 -0.173504 
0.502487 5.36243 4.37228 4.06851 4.01003 3.41734 3.8726 3.08718 -1.33039 
-7.75275 -8.90824 -0.910215 0.439221 0.349308 0.290347 4.41363 0.469832 -1.809 
-2.08861 -2.36221 -2.27044 -2.02605 -2.29965 -2.01078 -2.41389 -0.120643 -0.56888 
0.649456 -0.999335 -1.45506 -0.750297 -0.61461 0.0329602 -0.828544 -2.92334 -2.07216 
-0.823689 -0.992744 -0.369486 -0.748026 -1.56408 -3.88565 -4.39907 -4.52788 -5.32656 
-4.8705 -5.724 -4.11661 -3.64029 -1.69699 -6.93987 -2.70371 -2.96948 -4.10718 
-3.31986 -3.57632 -4.06935 -3.34992 -3.0471 -3.4125 -4.75152 -3.25101 -4.71022 
-1.37491 -7.9223 -1.67233 -10.7156 -15.0977 -17.418 -11.1651 -17.9531 -10.0557 
-14.5642 -3.59596 -5.15346 -3.1597 -4.24573 -2.58902 -6.54638 -7.44552 1.31405 
3.28707 2.49205 4.22611 3.69065 3.76478 3.17963 0.817323 2.64692 1.62398 
2.65815 0.925446 1.25337 -0.980738 -1.08496 -1.5034 1.03535 0.492906 -0.937798 
4.02455 3.81719 3.69841 4.2016 4.50085 4.11991 4.80828 4.27145 4.92876 
3.51656 3.87039 3.58813 2.78036 2.98671 3.13999 2.85238 0.260207 3.71694 
0.590061 2.69772 -1.66106 -2.00662 -1.64393 -1.41605 -0.905746 0.508011 -0.535818 
1.28751 4.04026 1.34403 -3.56798 1.51398 1.70416 1.78302 -0.251497 -0.737728 
4.25376 -3.28252 -4.24888 -3.6196 -3.79005 -6.85171 -2.70133 -4.37062 -3.29044 
-4.00163 -4.47337 -4.38242 -4.82057 -1.47103 -6.87506 -3.24459 -3.18194 -6.59564 
-17.7896 -6.50915 -0.0890069 -5.87011 -6.44488 -9.09815 -8.85735 -7.97719 -3.49644 
2.99996 -7.73453 -12.5295 -10.6086 -2.09036 -7.54719 -6.37665 -5.8178 0.159096 
-5.72719 -6.71608 -9.10424 -2.88008 -0.558084 2.01391 2.64399 4.34486 4.31243 
1.63862 4.02884 1.32314 2.83738 1.26899 -2.23534 -0.720649 -1.48672 -1.15401 
0.812406 4.49803 4.27437 3.17855 5.01843 1.86152 4.29418 5.35047 3.52494 
-1.84291 0.719353 1.30889 1.40217 -1.1377 -4.56115 -3.55237 -0.338951 -4.08339 
-1.96178 -2.60433 -11.314 -7.82523 -9.73515 0.10288 -11.1662 -13.0431 -9.82833 
-12.8266 -22.467 -14.8772 -13.7789 -15.8479 -16.0555 -15.56 -13.8952 -8.54429 
-17.1761 -9.00572 -11.4053 -16.908 -7.88453 1.30956 2.02408 1.58513 1.22062 
2.30117 -2.35704 2.16429 2.30418 2.33932 0.575847 -11.9976 -1.32594 -10.5513 
-21.7523 -18.6212 -19.0115 0.449009 -4.66595 0.183898 0.543374 0.783658 0.556867 
-2.18116 0.578245 -1.34507 -0.416223 -2.0548 -1.82681 -2.26438 -2.05381 -1.79548 
-1.47842 -2.21009 2.58214 2.61045 2.15049 3.74741 3.16202 3.83316 3.74481 
-2.97292 -2.19878 -2.66858 -2.28582 -2.22462 -2.53218 -2.6153 -1.64868 -1.9984 
-15.4248 -7.17892 1.78843 1.52901 2.30065 2.82828 2.98162 2.88246 2.06259 
1.88654 -2.23671 -0.679368 -1.75568 0.499339 0.211054 -0.0780626 -8.4341 -20.9454 
-8.52482 -3.0438 -8.51371 -14.3182 -3.17447 -7.92586 -6.10023 -6.42224 -6.80568 
-1.32277 -0.125025 -0.220092 -0.0616124 -0.802257 -1.29056 -1.28012 4.2042 4.52576 
3.70094 2.21167 4.35169 4.56939 4.02315 1.61662 3.49218 1.92089 -0.220902 
1.51533 1.73179 1.90937 1.83398 1.19522 3.07817 -8.43477 1.07644 -20.2912 
0.663109 -20.1226 -37.912 -27.4662 -4.99661 -9.12289 -5.61452 -5.72456 -6.49304 
-5.25459 0.0962923 -3.70724 -3.71113e-05 -0.302753 0.148592 -0.119808 -0.181047 -5.95008 
-1.3745 -4.61525 -6.98937 -1.27743 4.25701 3.56412 4.11165 4.11043 -11.8347 
-12.4978 -1.96277 -17.9672 -8.60504 -12.6719 -1.44917 -5.97064 -7.4605 -8.12918 
-12.2399 -11.4482 -8.91805 -2.44364 -8.46822 -8.26895 -8.23838 -0.0422919 0.000608641 
-0.151095 -0.222867 -0.217721 -0.208341 0.0840686 0.230193 0.0588877 -1.03807 1.17624 
-0.435812 1.24633 1.30222 0.967596 0.902086 1.50814 1.50567 -1.7451 -1.1601 
-1.27606 -1.27319 -1.11072 -7.15501 -2.08042 0.474853 0.365864 -3.68043 -1.55957 
-2.12594 -4.38594 -4.94269 -3.61224 -0.248429 0.0348006 0.439511 -7.72432 -7.81975 
-7.39313 -7.32803 -7.46862 3.34771 3.90131 -4.47767 4.1486 3.03505 4.78263 
3.29599 1.11879 3.72912 -17.6593 -10.3053 -5.09757 -5.32456 -3.37334 -13.0768 
-9.37504 -7.15028 -12.3879 -8.40238 -13.1336 1.4141 -1.62308 -5.25837 -0.376136 
3.48916 1.01777 -7.47828 -9.09385 -10.3956 -7.93486 -7.74262 -8.0464 -8.25765 
-8.12447 -7.4331 -8.08021 -7.75797 -3.78585 -7.45976 -9.51631 -14.5363 -8.39028 
-6.52165 -9.35811 -21.551 -12.1296 -9.94476 -5.19147 -4.65161 -8.73366 -15.1956 
-6.35401 -3.83578 -2.09929 -3.55321 -1.17105 -1.41773 3.44351 0.520679 1.12565 
3.05649 2.01999 1.31956 1.22845 0.710666 1.92728 -1.01308 -2.55634 -0.731874 
0.589863 0.155744 0.011976 1.13302 0.554897 0.960298 0.570605 0.0313481 0.69034 
-1.0872 0.412416 4.91685 4.42401 3.75082 4.36991 2.59293 -3.26161 -5.35085 
-12.0488 -0.370103 -1.00718 -2.88934 0.346747 -1.54114 -1.43462 -2.41045 1.66476 
1.65092 3.24743 -4.31324 2.39974 3.30223 2.70876 3.21958 3.87949 1.30613 
2.21433 -1.05342 1.63286 -11.616 -7.00738 -6.36175 -2.4042 -0.222046 -0.0346002 
-0.059728 -2.59589 -2.84106 -5.56957 -4.15875 -6.13796 -5.20818 -1.45395 -2.06002 
-8.91236 -0.430157 -1.78226 -8.82293 -0.554804 -0.46989 5.22717 3.08704 3.41804 
3.34314 3.15289 3.00084 3.07475 1.90977 3.32034 3.24935 2.26148 2.62515 
3.01273 3.43104 3.81012 4.33779 4.84566 3.86581 -0.302328 -0.130042 -3.54191 
-0.219492 -0.501834 -0.295217 -0.430263 -0.233687 0.44155 -0.492339 0.933205 0.593659 
0.574806 0.221463 -0.0876314 3.60861 3.32921 3.12139 1.64914 3.70061 3.75047 
3.55452 2.95114 3.46066 2.21056 -8.50003 -12.4086 -5.88983 -15.3565 -25.9204 
-12.6936 -10.4339 -15.231 -6.69525 -8.86698 -6.48516 -5.13541 -4.51424 -2.72544 
-1.68785 -1.73954 -0.401196 0.241711 0.773888 1.02522 -0.60264 2.73313 1.3573 
1.99416 1.66374 -7.4591 2.42739 1.20079 0.425625 2.32241 1.61834 2.09789 
1.56911 -0.884907 0.950747 -1.25229 -2.15337 0.316021 1.89629 0.990003 1.71407 
1.40078 -9.92669 -1.33507 -28.1033 -0.299268 -0.968662 -5.95235 -7.43559 -5.65155 
-1.30393 -17.9646 -12.1919 -12.5975 -2.76887 -13.6326 -3.3311 -6.61047 -3.7152 
-4.62067 -6.42796 -6.48876 -7.50678 -7.03967 -6.4769 -7.3631 -8.09877 -7.64853 
-6.14932 -1.03836 -0.340985 -1.13104 -1.75999 -1.68295 -10.0421 -15.2288 -12.7585 
-11.1123 -14.4869 -15.2466 -12.4017 -7.34724 -8.01994 -7.89015 -7.81251 -7.03894 
-6.03951 -7.17933 -5.49014 -1.19991 0.0789013 0.329058 -3.20313 -2.94651 -4.33988 
-1.90264 -2.99144 -2.45413 -3.1603 -3.34385 -3.74045 -2.52574 -1.91388 -2.18713 
-3.19942 -2.27107 -1.86127 0.156915 1.70298 -5.33223 -1.69756 -1.94685 0.907455 
-1.84724 -7.7236 -7.6132 0.214777 -7.02799 -6.19085 -3.84989 -0.839369 -1.6758 
0.222408 0.276318 0.270242 -0.89295 0.11923 0.199704 -6.81437 -9.62126 -7.68598 
-8.64342 -9.13994 -5.31947 0.18709 -0.629854 -9.04686 -6.77095 -6.06798 -4.17961 
-4.94456 -6.3843 -5.3366 -7.80993 -7.67357 0.244629 -0.696145 -7.72458 -0.781685 
-1.84683 -1.29625 -0.761435 -0.332467 -0.826122 -1.55984 -2.30704 -0.916418 -0.471524 
-0.180961 -0.74903 -1.11862 -1.413 3.57471 -0.672778 -0.461393 -0.81768 0.552278 
-1.20281 -0.0213057 -0.280597 -1.0275 -1.6986 -1.50958 1.19684 1.77194 -1.33149 
0.0810122 -0.64835 -3.58068 -0.869739 -0.979032 -0.223215 3.90344 -1.40077 0.965381 
0.627873 -1.22799 0.635893 0.776176 0.273717 5.40588 -4.42093 -3.50781 -3.03107 
-6.68774 -5.37546 -4.15432 -6.30452 -5.1694 -4.30045 -22.4397 -3.34471 -2.55074 
-2.85075 -2.58348 -2.85797 -2.59071 -1.51219 -1.19516 -1.62732 -1.65972 -4.59945 
-2.03992 0.148083 -12.9557 -11.3882 -4.74757 -7.34642 -7.01697 -6.75129 -6.74433 
-6.98439 -6.58765 -2.1279 -1.29563 -1.33803 -1.63427 -1.91956 -1.07398 -1.29835 
-1.03096 -9.44987 -14.3969 -13.605 -10.9814 -12.7017 -12.9762 -11.6086 -6.18725 
-10.0809 -12.1409 -9.18427 -12.4155 -15.4983 -6.58726 0.747019 -1.44844 -1.76799 
-2.22547 -3.35029 -0.831886 -1.76235 -1.70216 -1.50638 -2.14469 2.03608 0.592841 
-1.36317 -1.14802 -1.50089 -0.644565 0.399313 -0.828415 -2.51503 -1.93516 -0.0183252 
-0.069106 -0.249827 0.096984 -0.00147419 -0.0289625 -1.03694 0.142495 -0.155124 -0.349426 
-1.71255 -2.54909 -0.299546 -1.39335 -1.27652 -8.40491 -9.13796 0.405356 -11.0328 
-1.51459 -15.4411 -9.17092 -2.69609 0.242239 -0.298666 0.747451 0.718805 4.96128 
5.22478 4.86125 5.45796 4.56233 5.13071 2.45349 5.55183 5.64954 5.7775 
5.84655 0.73107 2.24267 -2.8389 2.58892 2.00075 -1.37338 -2.27055 2.45193 
0.546203 -0.992782 -3.39608 -2.29668 -0.297994 -0.463123 -30.5594 1.75368 3.32822 
1.10356 -4.71198 -9.42624 -5.40935 -6.99316 -10.4329 -8.79962 -8.48795 4.30039 
2.22519 4.49369 5.81627 4.09208 4.14193 3.47497 -3.39045 -15.2402 -2.04903 
-0.223052 -1.65945 -1.49787 0.802052 0.510494 0.661465 0.846034 -2.00957 0.391672 
0.430197 0.838988 0.668063 -0.917856 1.18007 0.137294 2.03165 -1.22562 0.812597 
-1.26061 0.126896 -9.5919 -10.2542 -8.85617 -9.22882 -9.3304 -1.53209 -1.35771 
2.11841 -1.33334 -1.41448 -1.40908 -1.31021 1.1694 -3.12198 -3.66814 -0.320222 
-2.98459 -1.3458 -8.05398 -5.82534 -9.01992 -11.079 -4.13095 0.512674 -7.7685 
-11.669 -1.09477 -1.23631 -0.596075 -0.0681178 -1.14424 -3.38566 -7.30539 -3.80701 
-3.24551 0.543402 -1.00451 -0.953102 -0.674525 0.0646504 -0.70202 -0.315838 0.110445 
-0.79751 -0.219134 -2.49244 -0.0894039 -1.30134 0.143813 -0.513866 -12.8776 -10.1975 
-1.9357 -6.54251 -7.60197 -7.87077 -18.4514 -9.90641 -13.9553 2.87202 -7.35862 
-7.42908 -9.21359 -7.50376 -6.53326 -7.85005 -7.65228 4.18874 5.756 5.48284 
5.04516 4.53145 4.26052 3.05757 3.05714 4.48537 4.09067 4.24716 -2.73505 
1.09024 2.60195 2.76656 3.70085 3.96052 3.63623 -7.43186 -7.52482 -7.4889 
-7.57029 0.286926 0.700969 0.737427 0.950632 0.488574 0.132206 0.605918 0.666398 
0.18321 -5.67054 -4.18526 -3.64008 -8.12937 -6.27748 -5.6794 -6.55464 1.07464 
-6.50117 1.71028 -0.503338 -1.05855 -7.62706 -1.71328 -1.05174 0.863747 -1.8818 
-13.5205 -2.84525 -16.1929 -14.3316 -11.8525 -18.3191 -0.629457 -2.37859 -13.4935 
-13.252 -10.7594 -10.6373 -12.2761 -6.80216 0.21127 -0.808119 -0.287282 -0.00424946 
-1.37994 -0.987794 0.255467 -0.432239 -0.153851 -0.198477 -0.0861523 -0.260988 0.220877 
-0.0773573 -0.0682429 -8.13399 -8.1381 -0.315703 -1.06391 -0.788973 -1.05666 -0.949165 
-1.05439 -0.351911 -12.8323 -11.5255 -11.7421 -12.1281 -11.6788 -12.3686 -0.705979 
-0.957913 -1.23471 0.763446 -1.09439 0.493763 -4.49462 -3.50652 -5.95396 -5.53074 
-1.00447 -2.84133 -4.5116 -0.166232 -1.22064 -13.74 -15.5238 -14.8185 -15.8739 
-14.9595 -2.00523 -6.77771 -5.77698 -5.28497 -7.9245 -5.16011 -2.80226 -2.89211 
-6.66847 -6.5369 -1.24038 4.48528 4.08587 4.3277 4.44021 -5.90591 -8.2854 
-5.58691 -6.20641 -9.14381 -7.90405 -7.59332 -5.45415 -8.02057 -7.76579 -7.21101 
-10.4974 -6.3618 -4.96714 -2.9152 0.21018 0.28911 0.450743 0.279804 -0.930367 
-0.701605 -0.719061 -0.763346 -0.0420686 -0.175753 -0.494494 -1.37315 -4.03772 -1.84066 
-2.29902 -2.27864 -2.24475 1.6447 -2.07382 -2.35556 -2.21623 -2.04529 -2.07399 
-1.27872 -1.2759 -0.965824 0.255339 -0.264954 1.25223 0.713858 0.911445 -1.19446 
3.77074 1.23031 1.10436 -0.488643 4.53543 2.53699 2.43146 2.49746 5.42743 
4.94555 5.76513 4.90916 3.83182 4.76428 4.5694 2.19 1.21292 -2.41775 
-3.89869 1.0328 -1.40974 -0.598503 3.56581 -10.5814 -3.15999 -1.02373 2.0479 
2.36898 0.990833 -0.583353 -2.68149 -1.16335 0.148846 -0.463041 -11.1885 -7.57571 
-11.2653 -7.90292 -8.6553 -9.11891 2.15729 3.93195 3.40201 2.50348 3.03547 
2.89852 2.82197 2.98578 2.79156 -1.15166 -3.66535 -3.23254 -3.23532 -3.50669 
-1.33949 -0.987329 -2.31025 -0.335129 -0.45427 -0.84557 -0.6591 -0.793117 -0.22109 
-1.04707 1.11155 -0.30457 -0.0325125 0.754345 -0.587153 -3.25582 -1.03512 1.95661 
0.114708 1.91029 0.486729 2.04617 2.28162 1.22389 3.99917 3.01281 3.16142 
-0.034504 -11.6762 2.32389 -6.03802 1.41058 -7.75058 -7.60848 -7.47387 -7.63467 
-7.60367 -6.90185 -7.80666 -7.34551 -5.87028 -7.60392 -9.94709 -9.46523 -9.86144 
-8.49266 -9.22313 -8.24734 -7.90911 -9.36069 -8.38489 -14.8023 -17.2414 -10.3357 
-4.9984 -0.0436267 -5.95712 0.820966 -21.0805 -15.3784 -13.2771 -1.39953 -8.33542 
-9.39625 -2.62108 -4.33363 -5.67055 -9.94573 -10.6753 -10.6237 -14.4624 -10.7817 
-9.59304 -8.86176 -3.54427 -10.1448 -8.36819 -3.77001 -4.88129 -3.45533 -4.65247 
0.848901 -1.06734 -9.71866 -4.78427 -7.91543 -7.88251 -7.86166 -8.71205 -7.73415 
-7.76832 -10.4407 -9.31304 -10.627 -15.3456 -0.723223 -0.809084 0.0189523 -0.0823771 
-0.831125 -11.1515 -10.5238 -8.60314 -9.66932 -4.01447 -6.99644 -7.54636 -8.45964 
-7.0305 -8.55071 -7.52017 -8.99177 -4.15144 -5.51051 -8.07693 -10.7199 -6.80398 
-7.26605 -7.62023 -7.10251 -6.70939 -4.89544 -7.59122 -5.62126 0.0331094 -1.23324 
0.307735 -0.914969 0.371419 0.423374 0.0488259 -6.6464 -6.78963 -8.14644 2.58103 
3.51823 4.50777 2.84498 2.39637 4.02547 2.34893 4.02378 3.36398 4.96462 
4.28642 -3.28903 -7.96309 -5.07019 -4.40788 -4.27623 -4.99552 -2.06586 -5.19628 
-8.47153 -33.7547 0.389869 -0.162064 -0.257046 -0.173667 -0.247128 -0.191588 -12.8755 
-13.6491 -12.1085 -13.6033 -19.5752 -3.73924 -16.6617 1.64635 -4.3655 0.513695 
-2.42944 -4.35069 -3.76461 -2.43645 2.74138 4.28123 4.24999 4.326 -1.63079 
-1.5965 0.550291 -1.28932 -1.3617 -0.487992 -12.3351 -3.92338 -2.81542 -1.21607 
-0.911212 -8.92752 -16.85 -19.7279 -6.50593 -7.90591 -1.70436 -5.49037 -4.43887 
-5.03312 -9.68354 -9.54694 -1.56015 -0.901772 -9.70211 -1.35117 -1.98854 -6.88756 
-6.07067 -6.84429 -10.5439 -0.398749 -3.15093 -4.79841 -7.35093 -2.43518 -4.1038 
-3.13805 -0.420891 -0.566931 -1.90412 -1.92799 0.390211 0.857275 -1.87169 -1.45168 
-1.46536 -1.39654 0.0897563 -1.31621 -9.65841 -9.20806 -8.51755 -8.44048 -4.56798 
-1.76846 -0.140073 -4.70668 -4.11475 -1.41328 -4.74723 -7.50781 -2.29589 -4.80968 
-11.0156 -7.08387 -14.7082 -6.79732 -12.0917 -6.83898 -5.25009 -1.45621 -2.25812 
-0.603383 -15.914 -1.91877 -0.348382 -3.02636 -1.36679 -2.95754 -6.69031 -1.62499 
0.405087 -0.935605 -0.576509 2.87578 -1.01151 0.0971372 -10.9465 -12.0919 -14.2253 
-7.74174 -8.29203 -10.5864 -8.60563 -7.0592 -6.92446 -10.1979 -6.2977 -10.1258 
-8.21078 -0.998104 0.0138621 -0.812853 0.144662 -0.602065 0.195352 -1.15348 -7.38296 
-7.57572 -7.06485 -4.86398 -7.24493 -6.82998 1.9305 -1.13245 -0.312966 3.31905 
3.84008 2.20375 -0.0753818 -1.28583 -0.948026 -4.44602 1.23238 -1.61588 3.17909 
-1.39861 -1.44195 -1.19572 -0.311025 -1.34572 -1.36262 0.593614 0.380136 -10.8445 
-20.4739 -20.2968 -23.9706 -35.5375 -33.0087 -0.673147 -7.04008 -4.69429 -2.56664 
-1.57643 -6.01119 2.95583 1.43519 0.826109 0.865888 -0.802945 -1.92662 0.669776 
-0.179436 -8.44455 -8.15773 -0.0447106 -0.173848 -16.8277 0.134097 0.0366793 -0.212641 
-1.80585 -0.446907 -2.45511 -1.7637 0.513642 0.201559 -0.690391 0.155325 0.39698 
-0.259791 0.387507 -0.101403 0.221632 0.095219 0.188976 0.500122 -4.78996 -2.2422 
-4.36846 -0.949513 -5.09842 -2.04627 -1.42368 -1.36189 -1.53291 -1.46884 -1.62824 
-1.49081 -1.59817 -1.39675 -1.35148 -1.36868 -0.143944 -8.78056 -14.2111 -10.6709 
-10.8224 -10.7134 -16.6665 -15.6036 -18.5316 5.19014 4.25193 4.34861 4.37672 
2.08486 1.7661 2.07615 2.19517 1.88513 2.36852 2.27728 2.00427 2.4595 
-0.220002 -1.26759 -2.11662 -1.27328 -0.220937 -0.569254 -0.597312 -0.328739 -0.709511 
-0.904676 0.666476 -2.92958 -2.77918 -2.62163 -2.91627 -2.76376 -2.60621 0.117458 
0.343201 0.0867297 0.0361115 0.098084 -0.0438995 0.107838 -0.183227 -0.0505285 -0.117572 
0.680806 0.154739 0.735683 0.782291 0.981498 -11.0324 -11.1336 0.711359 -3.25613 
-2.90029 -4.90713 -7.45384 -11.3022 -16.6444 -5.27911 -16.7945 -3.71259 -5.27628 
-6.39748 -7.41598 -1.97626 -0.171867 -2.51746 0.107961 -0.343568 -0.011731 0.0899414 
-1.34038 -0.103026 -0.0707434 -7.07014 -3.25742 -3.97017 -0.851521 -0.935421 -1.47353 
-0.652079 -1.27671 -1.95972 -2.04342 -2.43404 -2.35033 -1.42773 -1.67746 -0.637679 
-4.41527 3.03899 -1.06878 -8.21606 -7.78527 -10.7202 -7.98825 -3.67122 -0.838393 
0.29309 0.425726 -1.3347 0.499167 0.408543 -3.17853 -5.47124 -6.91502 -3.33621 
-3.88905 -6.21199 -5.82679 1.81811 2.05175 -0.578309 0.974115 0.643734 -8.0724 
-7.51636 -7.99562 -8.97308 -7.39822 -7.39277 -7.16449 -7.30897 -7.68262 -17.3914 
-13.4326 -14.9772 -8.54627 -5.01987 -2.72902 -15.2674 -13.0168 -12.4518 -11.5919 
-11.0269 -8.22803 -8.80775 -8.15341 0.215266 -5.50444 -18.0936 -11.1143 -1.81632 
-1.664 0.657348 -1.91675 -1.40926 -1.13379 -1.94597 -1.97746 -0.55774 0.124837 
-0.231606 -0.414385 -0.550662 -0.399433 -0.499783 -0.376059 0.35271 -0.521173 -0.624672 
-0.596575 -1.62814 -1.72612 -1.38245 1.70452 1.32331 -0.822696 1.19467 1.89094 
-1.87936 -0.513682 -1.71978 -1.90613 -0.0339447 -1.49931 -3.18632 -0.541359 -0.63957 
-0.259501 2.2027 -0.461797 0.0363225 2.01206 0.985263 -0.50757 -6.77698 -6.45603 
4.79612 3.778 5.10262 4.30649 4.40276 4.54195 -6.67012 -1.17215 -0.340128 
-1.00763 2.55763 -0.362052 -0.237261 -1.59324 -1.27363 -1.95824 -0.356795 -1.19908 
-4.0346 -1.98274 -1.62695 -1.29929 -5.67331 -6.76822 0.329319 0.563834 -0.244926 
-2.03451 -3.52085 -3.59789 -3.80281 -4.44167 -4.58667 -4.7171 -3.70458 -0.450324 
-0.644815 -0.390342 -0.722361 -0.761053 -0.408657 -0.429969 -0.0800613 -0.161062 0.348368 
0.557729 -0.443415 1.45121 0.528796 0.514489 -7.37182 -6.70313 -4.23516 -5.6918 
-4.03113 -7.84655 -4.90521 -4.387 1.91562 -0.88959 -0.351064 -6.33811 -4.38296 
-6.33709 -1.19289 -1.81034 -1.13771 -2.68295 -2.72292 -2.19678 -2.15681 -4.28784 
1.21537 -0.959813 -1.38044 2.70546 -1.48323 0.0241243 1.71848 -0.347759 -6.33634 
-6.16039 -7.21316 -5.73484 -5.64895 -6.54739 -6.28001 -5.21423 -4.83142 -5.01489 
0.725999 0.661328 1.04417 -1.23149 -0.978704 0.471761 0.222031 0.412141 0.0173807 
0.0196669 -0.378723 0.158422 -0.252869 0.290743 -1.34826 -1.26548 -1.39822 -1.22884 
-2.00051 -1.81082 -2.2714 -0.306749 0.796205 -1.68542 -0.341207 -1.16193 -1.45487 
-1.05625 -1.07219 -1.83433 -3.15024 -1.22113 -0.171173 -0.333146 -0.166677 -0.0836245 
-0.306757 -0.241134 -0.116859 -0.0084321 -1.08871 -1.12549 -2.83076 -2.00142 -2.27808 
-1.32304 -3.01453 -7.9282 -7.84426 -7.74586 -7.7034 -7.82477 -7.78569 -7.90706 
0.330192 0.739914 -0.612001 0.365416 4.77962 4.96691 4.34349 5.39996 3.99237 
5.43589 -7.38118 -7.41314 -7.54039 -7.60618 -6.71952 -0.692065 -3.82808 -5.36585 
-4.92163 -0.405372 1.81766 4.25368 2.87064 4.49411 -3.02351 -1.90573 -1.14243 
-1.45259 -1.32847 -1.12738 0.699236 -1.34427 -4.05099 -4.38208 -3.6027 -3.46451 
-6.55811 -8.30143 -7.76784 -5.03263 -7.77258 2.93014 1.46454 5.04517 5.57232 
5.77145 5.15731 5.71711 4.33823 4.53556 4.89527 -1.07109 -10.5519 -2.03461 
-2.2891 -2.14182 -1.93 -2.10069 -2.51158 -5.81751 -2.95209 -2.34151 -2.65688 
-2.14598 -15.7689 -16.2573 -9.50574 -13.7328 -11.3528 -19.2363 -16.2984 -5.42279 
-7.10579 -2.4025 -4.37621 -2.59571 -2.10122 -1.9263 -1.96824 -1.94372 -1.44619 
-1.3834 -1.07652 -1.83318 -2.43786 -1.89849 -1.14458 -8.24549 -10.9149 4.12857 
4.05856 4.57406 4.67595 -1.26508 -1.14696 -1.06283 -1.28648 -1.19312 0.576148 
0.434304 0.421913 0.175733 0.104355 0.26861 0.409865 -9.18183 -1.36684 -1.88441 
-1.67155 -2.67237 0.727786 -0.804722 -1.20278 -0.123669 -21.245 2.24568 -1.81556 
0.0513854 -13.1387 -1.53337 -11.7746 -9.9137 -7.76531 -6.96372 -10.6077 -5.24922 
-0.836173 -5.7454 -0.470909 -0.376788 -0.411185 -0.381526 -7.47902 -7.50927 -7.36088 
-0.107322 -8.54967 -7.57972 -7.55649 0.110146 0.526335 0.269801 -1.24308 0.0804694 
-5.0315 -5.12026 -4.80071 -5.83724 -7.16299 -7.19601 -5.90155 -14.8553 2.64302 
-2.07933 0.663459 0.849671 -6.94403 2.48671 -1.10463 -1.59462 -1.20392 -2.57366 
-1.49846 -1.97452 -1.14076 -1.15215 0.0383272 0.0781194 -0.307473 0.15801 -1.46213 
-0.358877 -0.524412 -0.683505 -0.151752 -0.583135 -0.0747423 -0.454873 -0.0573905 -0.264026 
-0.21036 -2.93338 -2.77013 -3.1098 -3.41871 -5.44837 -2.76919 -2.58844 -8.97431 
-7.66941 -2.29432 -7.69203 -6.20988 -7.86958 1.78776 2.06585 2.25256 -0.393919 
1.79411 1.76055 -12.6331 -2.95843 -10.1465 -11.1049 -0.775204 -6.15049 -7.6778 
-7.08029 -3.24327 -11.8122 -13.0938 -9.81714 -9.26279 -11.6762 -11.6956 -17.118 
-17.7705 -17.4895 -16.2109 -7.87687 -11.3165 -7.68167 -7.7199 -2.12141 -14.7241 
-11.3793 -10.5935 1.27913 2.1826 -0.7338 -2.81097 -2.40608 -0.481428 -5.38765 
-1.79205 -2.77374 -7.90081 -5.92525 -5.98868 -8.76443 -7.38089 -7.54066 -8.40761 
4.89405 4.73429 4.8904 5.1679 4.51799 1.7698 5.01186 0.607183 1.19282 
-0.413971 -0.184033 -1.22097 -10.8709 -12.8217 -11.5244 -13.7887 -9.92178 -12.7649 
-15.2249 3.0437 3.00453 4.50655 4.33589 3.67527 -0.915113 -0.0904735 0.131892 
-2.30547 -3.39387 -2.47885 -3.23428 -4.07023 -2.60031 -4.32141 -2.06047 -18.8872 
-17.4321 -19.6131 -16.9869 -19.4719 -19.6056 -21.7658 -23.9652 -0.0172087 -6.87923 
-6.66432 -6.97415 -7.00435 -0.677295 -0.401342 -0.482767 -0.412128 -0.102937 -17.782 
-10.413 -19.6717 -11.6983 -6.02403 -5.47619 -8.55292 -8.00508 -7.58958 -4.01473 
-4.90574 0.276392 -5.55345 -6.34014 -9.23861 -12.1557 -6.45891 -8.04734 -8.4088 
-5.02519 -7.54349 5.77368 5.69264 4.28513 0.191261 -1.52781 -1.73819 -1.53303 
-4.19385 -3.2057 2.22611 2.15132 2.57425 -0.763099 -0.553848 0.254093 1.50661 
0.3695 -6.10449 -1.5038 -1.37953 -1.33001 -4.53531 -8.45413 -5.05571 -7.91492 
-5.83225 -7.03135 -8.50102 -7.47804 -7.74619 -1.36442 -1.51498 -1.69957 -2.12202 
-2.17047 -2.34259 -4.68427 -5.25938 -5.26153 -6.50985 -2.93743 -7.67517 -9.41213 
-1.14968 -9.11076 0.583342 -4.90972 0.133203 -7.88543 -0.81654 -6.91904 -3.02312 
-0.670099 -0.35539 -5.16688 -5.55782 -21.3158 -19.9276 -4.60141 -35.5986 2.51736 
3.00823 2.4279 3.17568 3.18234 -3.8986 -3.96858 -4.37381 -5.65615 -3.85054 
-4.2469 -2.65436 -3.82069 1.50458 -0.469474 0.88571 0.757377 -0.262331 -1.45517 
-13.097 -9.45628 -8.2496 -3.21591 -8.14284 -1.58594 -1.54195 -1.47839 -1.41947 
-1.33763 0.83739 -0.695212 -2.34419 0.239119 -22.7717 2.45722 1.17133 1.0674 
1.29197 0.730416 0.703997 0.528345 -1.56746 -1.42509 -1.85634 -1.97059 -2.84667 
4.6258 -16.1206 3.35783 2.81713 2.29871 -1.32487 -1.03867 -1.93876 -0.316421 
-5.63026 -3.2503 -3.25116 -1.36745 -3.80595 -2.28819 -2.96977 -1.25906 -2.56086 
-2.32395 4.35937 2.79457 4.84246 4.04593 -2.89337 -2.83211 -3.49855 -3.29646 
-0.0219102 -7.08878 3.12562 3.21859 3.07814 4.38668 4.31577 4.02571 4.31261 
-18.2627 -13.3144 -16.3018 -10.0238 -17.0585 -15.6888 -10.7333 -6.02833 -7.72487 
-3.15387 -11.9138 -9.41832 -8.52437 -9.52782 -9.69802 -6.24467 -4.40194 -3.33778 
-3.92195 -3.88153 -3.35569 -2.98688 -0.317505 0.0226357 -0.488054 -0.536625 0.130829 
-0.373478 -0.318234 -0.273163 0.680082 -4.64233 0.570875 -1.43987 0.217902 0.392465 
-0.540265 -0.3163 0.43113 0.564206 0.226666 -1.0546 0.562928 -2.61107 -3.77454 
-5.38778 -5.66538 -37.2322 -2.2501 -1.53327 -0.807502 2.64751 3.21022 3.39815 
2.74408 1.65908 2.15688 -0.556008 -0.806882 -0.146501 -1.27725 -0.440281 -0.773108 
-4.10576 -3.06178 -11.7674 -0.360967 -0.0540434 -0.452295 -8.66432 -7.97153 -3.38646 
-7.73072 -12.2244 -8.25243 -6.0847 -7.7175 -1.23032 -0.971264 -1.03559 -1.14147 
-1.12282 -1.2127 -1.3409 3.2733 3.1541 4.19715 -1.77654 4.60348 -8.10624 
-11.5523 -10.6871 -13.3076 -7.9495 -13.2598 -13.4233 -12.429 0.527845 0.942477 
0.675646 1.008 0.741171 -8.15667 -5.20043 -9.64921 -5.99678 -9.93153 -10.1734 
-13.1534 -16.0512 -12.6179 0.0694493 0.137553 -0.210952 1.44542 -0.145713 -0.161726 
-0.20692 -0.00915422 -0.273888 -1.162 -0.0386256 -0.486708 -7.92509 -7.9925 -7.84511 
-7.91252 -7.64787 -7.66216 -7.53204 -7.90978 -0.16261 3.24203 0.958525 -1.76363 
-0.475107 2.56481 2.79752 2.24782 2.31794 1.43285 0.516644 3.39222 1.20263 
-4.84433 2.52827 -0.677816 -6.06828 -0.298252 -5.05021 -14.6003 2.46979 1.64265 
4.56768 4.50757 4.50223 3.05296 4.96998 3.47913 -6.81931 -16.0089 -13.3646 
-8.16454 -13.262 -26.2992 -25.212 -22.0378 -15.8704 -22.1418 -45.6813 -1.45871 
-2.19702 -1.59687 -1.24828 -1.25384 0.688941 -5.056 -1.44434 -29.8966 -2.28843 
-1.54262 -1.35959 -0.830951 -2.61496 -2.82714 -0.912026 -0.886692 -1.51803 2.49718 
3.23356 3.43599 4.24666 -0.0146097 2.17786 -1.55382 0.0474228 0.131242 -0.0104672 
0.238736 -18.7786 -0.268678 -0.106541 -0.109023 -7.08746 -11.0569 -7.06627 -8.03588 
-4.04694 -6.01703 -6.20869 -3.7587 -1.57582 -1.60947 -1.52937 0.275744 -0.145541 
-0.291424 -3.47032 -7.96546 -4.58966 -5.43813 -6.37613 -6.1978 -6.96878 -7.31774 
-5.96052 -6.86106 -0.0397736 2.13487 -1.97248 -1.05602 1.49498 -1.26322 -9.74026 
-10.3026 -9.66457 -10.6567 -9.69257 -10.5873 -11.0905 -0.994 -6.07996 -3.57928 
0.889123 -4.47865 -3.2008 -3.83111 -3.55446 0.539971 -1.17962 0.802551 0.374007 
0.781083 2.0829 0.96385 -2.01211 3.77104 -3.93219 0.869801 0.343188 -0.0556598 
-7.33883 -4.07848 -3.98753 -1.6031 -5.2619 -7.27805 -7.45135 -7.54513 -4.11248 
-6.7684 -3.87115 -7.83726 -10.2795 -3.79192 -3.87301 -4.02942 -3.39569 -2.61377 
-1.75603 -2.44457 -0.917175 1.69044 -2.45035 0.361378 1.67794 1.11999 2.64416 
1.34165 -8.34136 -9.24807 -10.6308 -8.18979 2.18915 0.0900469 2.09852 2.78314 
3.35525 -12.9761 -11.2812 -11.4152 -9.86941 -11.544 -14.0384 -12.0368 -8.3029 
-2.69288 -11.809 -11.7963 -8.77043 -1.04499 -9.06652 -8.24259 -5.41358 -8.73976 
-1.14306 -4.94404 -1.17305 -3.86114 -0.487013 -1.58237 -1.07194 -1.63117 -2.46301 
-1.33693 -1.35625 0.526535 0.158307 -1.16886 3.61439 2.62757 2.87172 -2.2551 
-2.9953 0.595917 -0.0714924 0.943339 -0.630502 1.24049 -7.96988 -8.00529 -7.826 
-8.19879 -8.26017 -8.11483 -8.00596 -10.1443 -10.8232 -9.50724 -8.86243 -8.54331 
-6.51983 -10.7455 -11.4547 -8.20526 0.77531 0.300309 -0.162881 -0.551561 -0.0942983 
-1.29668 -1.25403 2.14028 1.21245 -0.229974 -1.65787 -2.1006 -1.63224 -1.3948 
5.05303 4.74977 5.10166 3.66857 4.9656 -1.7356 -1.57105 -1.69228 -1.43397 
0.808581 -0.968142 1.65903 0.971165 0.611191 0.278512 0.917692 -0.544967 -0.984198 
-4.58509 -4.49679 -3.99974 -6.97816 -2.21237 0.405865 0.343633 0.483897 -0.237765 
-1.12841 -17.9408 -16.2191 -17.1642 -19.0074 -14.3567 -7.139 -6.98142 -6.8086 
2.75536 -8.87854 -1.06385 0.23487 -0.34656 -0.638133 -0.978635 -0.650628 -0.019555 
-0.0804505 -0.147205 0.385227 0.252254 -0.182203 -0.511413 -0.402559 2.42235 5.06903 
3.93898 4.54321 4.85479 4.44987 -2.28472 0.729482 -0.415422 -0.971565 -1.58588 
-12.3633 -1.11461 -1.36608 -1.35603 -4.28389 -2.63933 -4.19118 -7.97453 -8.27797 
-22.0276 2.58023 1.95765 1.95354 1.74311 1.74722 -9.44199 -5.43558 -7.88761 
-6.69861 0.165403 -6.59312 2.49873 2.85917 2.60572 1.5794 2.69382 -1.59476 
-1.78347 -2.01026 -2.00757 -0.123022 -0.109944 -0.191473 0.00746335 -0.0947512 -0.146152 
0.130319 1.71351 4.85412 -20.3619 0.553081 1.59332 2.72162 -1.11583 -1.19792 
-1.19282 -1.23289 -1.18531 3.69251 -14.2544 -0.0758152 -0.175427 -0.146749 -0.329534 
-29.2164 -0.202082 5.01256 4.66203 4.95345 4.49511 -1.2526 -2.09031 -2.00372 
-2.16004 5.50238 -7.30304 -1.16166 -10.104 -7.73626 -8.48621 -2.57088 -3.52251 
-5.79659 -5.04964 -6.35543 -5.20476 -4.68568 -0.0886568 -0.275059 -0.192624 -0.715945 
0.184144 -0.0376175 0.365197 0.129262 5.10703 4.99696 4.89278 5.3096 5.20568 
5.02422 4.69554 4.38562 4.33834 4.57641 1.84305 -1.21455 -1.25114 -1.42478 
-1.5143 -1.84663 -0.330159 -2.89521 -1.60255 -1.99957 -2.8182 0.0150505 -0.365222 
0.0014831 0.196106 -0.173437 -0.24165 -0.26884 -0.250776 -0.138322 -0.205182 -0.777981 
-1.07096 0.581074 -0.725073 -0.205629 0.0969024 0.0473278 -0.943149 -0.786867 -0.116497 
2.90662 2.24086 3.44336 2.72555 -2.58763 -2.70186 -3.08377 -3.69173 -2.86973 
-2.52229 2.93866 4.17977 3.33971 3.94592 2.93414 -13.3125 -4.96338 -4.41274 
5.06955 4.37394 4.40367 3.56452 4.14416 5.6689 -0.143136 4.14904 5.27522 
-7.74262 -5.31212 -5.29556 -5.87167 -25.2254 -8.08496 -10.1506 -9.06017 -9.77009 
-6.32367 2.26832 -2.12993 -0.41002 -0.111859 -0.984722 -0.795239 -0.171462 0.7482 
0.470658 0.777841 -11.244 -10.7593 -0.183442 -0.868145 -1.24303 -6.49778 -1.2928 
-2.20205 -0.77295 -2.53324 0.538791 2.93626 1.91907 2.56018 1.01076 1.87189 
3.95656 2.33648 2.77902 3.80878 2.83263 2.41061 -0.92773 -0.578069 -0.478051 
-1.00676 -0.134495 -0.337049 -6.31892 1.33745 -7.65893 0.592753 -0.229372 -1.02373 
-1.13759 0.683925 -0.685333 -0.319699 -1.31493 -10.9073 0.0164785 1.17407 0.645635 
2.64216 -1.02737 -2.9085 -5.30754 0.115077 0.741995 -0.859694 -7.64093 -7.35238 
-7.628 -7.46727 -7.241 -0.31837 0.6884 -0.587056 0.52268 0.605122 -0.870869 
-0.33498 -3.39198 -1.26436 -19.4052 -1.16029 -2.16698 -1.09269 2.7111 3.01676 
0.658824 3.37062 3.95504 5.12844 5.4768 5.57009 4.61809 5.24808 5.41994 
4.94795 5.72748 5.74858 0.57408 2.0374 2.04403 3.31393 3.08771 -4.90507 
3.06056 -4.66585 -4.58845 -2.28458 -5.57401 -16.7517 -11.345 -13.7527 -18.0152 
-12.8232 -19.7969 -15.7979 -9.77291 -6.65927 -6.64028 0.764406 1.18061 1.35873 
1.27155 0.0765418 -6.06814 -6.26939 -6.69951 -7.22257 -8.86297 -4.99243 -6.21591 
-6.51759 -6.16301 -5.51903 -6.47831 -7.12486 -7.01974 -7.2108 -6.87039 -1.26313 
-1.47662 -1.36347 -1.18996 -1.21266 -1.57683 -1.68499 5.01377 3.34634 2.70361 
3.47382 5.79303 5.07928 5.60163 4.97856 3.16939 2.49626 3.31898 3.25779 
3.00895 2.94776 -2.04005 -1.94197 -5.27358 -2.79661 -1.88572 -1.73517 1.92638 
1.18449 0.323101 4.29963 1.7678 1.76895 2.9588 -7.46141 -7.48176 -7.24939 
-7.19144 -7.59738 -6.80489 -5.99742 -1.41118 -1.21783 -1.49087 -1.38485 -1.86564 
-1.40883 -1.26296 -8.78694 -0.136634 0.303095 -0.919272 0.38861 0.479234 0.291034 
-28.1882 -22.5219 -21.092 -22.7757 -13.6614 -12.7316 -20.1153 -22.4371 -16.5655 
-12.9054 -17.7773 -4.89035 -6.22246 -6.54308 -4.77152 -6.76875 -1.17076 -1.02617 
-1.10102 -1.02532 -1.00476 -0.792915 -0.735214 -0.7172 -0.125634 -18.0565 0.0109603 
-0.109928 -0.0737233 -0.0468933 -0.0797601 -0.221839 0.282947 -0.542408 -0.297463 3.19109 
0.255469 2.252 -3.10205 -5.08535 -4.88376 -3.76891 2.41894 -3.47211 0.284276 
0.607406 0.0461261 2.59228 0.924307 -1.45529 -4.48348 -1.88155 -1.14204 -1.71881 
-3.69355 -3.52977 -3.90766 -1.0608 -1.08653 -1.43297 -1.38066 -1.20994 -0.71268 
0.713188 1.3941 -10.9213 -23.0922 -0.171134 -6.84814 -10.1132 -12.2363 -16.4508 
-18.287 -2.82231 -3.05303 -2.76553 -2.77809 -3.02491 -1.40401 -2.3073 -1.37601 
-7.64293 -1.81719 -8.73629 -7.35176 -8.33316 -8.13705 -8.68023 -4.43905 -9.05616 
-1.66597 -2.02355 0.715975 -1.30073 0.341076 0.491307 0.516014 0.935509 0.642387 
0.143418 -6.27164 -13.9255 -13.4045 -0.230344 -0.1926 -11.6751 -0.274833 -11.1904 
3.72476 -1.33734 -1.16264 1.60702 -0.289029 0.969384 2.84434 2.18111 2.82053 
2.9274 3.08569 3.52173 4.18248 3.56126 1.4476 -14.7114 -0.206255 1.0943 
-12.6911 -24.3253 -28.7346 -28.3448 -23.6094 -3.07455 -2.19972 -2.99602 -1.34331 
-13.262 0.0500533 0.284129 2.33368 1.85436 2.74573 -2.44282 -2.72169 -2.47982 
2.29836 -0.991934 2.18273 1.70004 2.54026 3.00445 1.15949 3.22541 1.59121 
3.21924 -6.20223 -8.77039 -9.17319 -9.53166 -9.01495 -9.35983 -9.00136 -9.58095 
-8.43193 -1.949 -1.96651 -0.204341 -0.476933 0.293097 -2.65782 -2.32664 -6.6614 
1.15329 -0.116041 -1.54332 -0.521597 -1.05244 -1.25157 -0.988091 0.225237 -0.354265 
1.18418 1.22257 -2.12649 -2.53699 -1.8957 -1.8622 -3.58749 -3.47998 -1.75469 
-13.2557 0.996585 -3.91904 3.05623 2.50326 -2.25258 -0.252279 -0.230523 -0.24586 
-0.354209 -0.608203 -5.14499 -7.21735 -7.87519 -0.140781 -5.266 -5.73673 -8.30825 
0.16351 -15.0099 -13.8029 -15.559 -19.664 -19.0582 -9.6728 -16.243 -6.45629 
0.361472 -1.09069 -0.522992 0.0976255 -2.63008 -4.00062 -2.77282 -1.33255 -3.67763 
-6.78827 -15.6904 -16.1559 -21.2747 -12.0675 -16.3308 -14.1433 -15.8804 -20.8544 
-17.2303 -19.9578 -0.126027 -0.663306 -0.753359 -0.804824 -0.714771 -0.799482 0.0205872 
-1.46056 0.243186 -0.326338 -0.615011 0.369215 0.142847 4.72057 -0.291519 1.0653 
-1.46447 -1.37756 -0.707013 -1.52815 -1.52582 -6.81315 -5.40123 -8.37062 -5.32121 
-7.69668 0.475587 -14.4626 -12.4422 -1.08373 -0.731839 -0.78621 -0.37654 1.06033 
2.36664 2.6213 0.42775 -1.39372 -1.18174 -0.919289 -21.0069 5.45332 -27.9035 
-0.446962 -1.35285 -1.2968 -1.4021 -1.04706 -0.743731 -1.0744 -1.30045 -24.4366 
-22.0538 -21.1147 -19.6382 -23.5304 -10.3483 -7.16215 -15.3959 -17.3814 -12.3382 
-17.4194 -3.15584 -2.75022 -2.8757 -4.66345 -6.78898 0.091563 -0.881483 -2.1819 
-0.626906 1.77724 2.00414 -0.282324 -0.813528 1.72422 1.45143 -7.05555 -5.86855 
-6.589 -6.77415 -6.80336 -7.22819 -7.28469 1.22303 2.85939 1.40871 -0.544529 
3.13248 -3.58675 -4.07224 -2.74241 -2.80367 -2.49043 -9.15442 -1.65044 -6.4816 
-6.50567 -8.47982 -4.88184 -8.18848 -4.98973 -5.181 -8.67472 -7.84744 -8.89312 
-8.92419 -10.2646 2.68539 -0.206556 -15.5481 -6.38978 -3.55851 -10.2571 -4.8906 
-0.923473 -12.5769 0.0304099 -0.120025 -0.18072 -0.171214 -0.3642 -3.93419 -0.264911 
-1.82472 -1.71876 -1.11437 -5.94648 -4.55977 -6.65741 1.65674 2.26756 -3.64072 
2.57757 2.46821 4.95943 2.12207 2.15841 2.30063 3.9183 2.11552 1.77959 
-4.66806 -6.47206 -5.01771 -6.21475 -4.98666 -5.81113 -4.73795 -4.98213 -2.88084 
-3.66056 -2.77871 -6.03389 -6.18717 -5.10623 -7.81088 2.50539 0.413514 0.210388 
2.40737 3.87488 3.4791 -1.21985 -1.1644 -1.196 -1.55111 -1.60163 -1.52791 
-1.04459 -6.78436 -7.07699 -7.45473 -7.23655 -7.54023 -7.42166 -1.04551 -1.12122 
-1.02543 -0.923273 -1.34271 -25.6796 3.47003 -0.966777 -1.00936 -0.850347 -0.0485827 
0.199104 0.0576213 -0.0826764 -0.0422917 0.0984862 2.07103 3.62738 1.42537 -1.05159 
3.92292 -0.467491 4.62658 4.33821 0.12343 -3.61142 -8.27423 0.0333779 -0.193808 
0.0850679 -1.03207 -4.30348 2.15867 -2.15417 -0.0484881 -0.187246 -0.317854 -0.318847 
-16.7085 -0.146243 -0.218441 -0.1385 -26.1094 -9.888 -25.7741 -0.875302 -1.87448 
-1.7666 -7.76734 -2.31773 -2.03405 -5.36571 -0.349522 -5.16083 -0.119306 0.0637272 
-7.08217 -8.20232 1.52771 -1.72364 1.52348 2.92556 0.983951 3.18534 3.63663 
-1.39946 -2.0677 -1.21474 -1.2224 -1.7285 -1.64619 -1.77719 -0.50752 -10.4646 
-3.49676 -3.4046 -2.96944 -3.29857 0.408299 -0.182207 5.38906 -0.104133 -0.314025 
5.62687 -2.86635 0.515994 -1.22701 1.12843 -2.0549 0.0557694 -1.72725 -2.34817 
-2.44563 -16.8955 -25.1931 -20.9486 5.62927 3.70592 5.72512 4.55819 5.69369 
3.18076 3.53406 -0.0738738 0.196297 0.0744801 0.134844 -10.6813 -10.9182 -9.38627 
-10.685 -13.6799 -15.6017 -15.9782 -9.50375 -3.36786 -7.92465 -2.66785 -2.19355 
-4.35786 -7.78912 -7.59064 -14.3952 -20.7021 -18.4511 -14.7177 -12.3463 -28.0826 
-3.64235 -2.5568 -2.68862 -2.84135 -1.98908 -1.54536 -2.14532 -2.25257 -2.28518 
-0.0720172 -12.5023 -0.859065 -11.6073 -9.20996 -1.37519 -26.5833 -2.38458 1.55023 
-1.876 -2.791 -0.220946 -0.0497203 -0.420491 -3.64793 -0.509437 -0.604424 -0.0951146 
-0.147081 -6.32195 -6.34009 -6.97406 -7.03342 0.0744413 0.321222 0.381832 0.708241 
0.0342898 0.936829 0.953087 0.524671 0.505373 0.657906 3.65343 -3.20417 -2.4865 
-19.8619 4.72472 2.80445 4.32964 2.94338 4.14889 -7.37321 5.1306 1.46304 
4.66612 1.11237 5.29196 4.83679 4.66708 4.91477 -3.30656 4.54458 -3.31008 
4.5457 3.57167 -2.34021 -4.20042 -2.03849 -4.35665 -5.78761 0.565326 0.309686 
-0.879597 -0.907661 5.03411 4.97109 4.92232 4.98534 3.88792 -33.3907 1.4665 
-2.26208 2.57377 2.76351 0.442374 -0.252006 3.72475 4.79878 1.76559 1.75415 
-1.43459 -3.57549 3.10446 0.350587 4.82207 2.47113 -7.19873 -7.62412 -6.65193 
-6.79228 -6.66428 -8.00622 -3.75803 -8.60827 -3.80663 -2.77832 -2.53028 -2.51743 
-1.89413 -2.42782 -2.37614 -1.71071 -21.3731 -19.2919 -21.1701 -6.5467 -9.77767 
-11.5995 -7.29901 -11.0584 -8.94533 -4.21514 -0.0795336 5.69742 -0.425223 -3.06185 
-2.92831 -3.78351 4.77386 4.59003 4.10073 5.69627 2.83916 4.0354 4.26492 
2.61956 -1.01439 0.973234 -30.9278 -31.8958 -7.94589 -1.25909 -1.34251 0.145154 
0.103451 -0.0851532 0.16933 0.0465065 0.428246 -3.12921 0.235278 0.188927 -0.122754 
1.85236 1.21091 1.40392 1.1635 1.77367 1.02081 2.00447 1.78244 -25.1862 
2.17705 -2.92299 -3.53913 -2.39726 -1.21042 -1.74358 -1.7253 -1.86837 -1.91833 
-1.48977 5.41187 5.18989 5.1864 4.83321 3.12455 -6.75603 -1.33199 -1.31649 
-1.29681 -1.30288 -1.33807 -26.2346 0.0512156 -3.57902 -0.632806 -0.364921 0.100671 
-0.0580783 -1.17921 -0.129132 0.070292 -18.011 -16.3848 -9.0911 -3.9877 -4.81028 
-6.8841 -4.60985 -6.46565 -7.10846 -8.96426 -7.08019 -8.44086 -8.20976 -6.93872 
-7.26235 -0.77661 -6.66593 0.534558 -1.43419 -0.922825 -1.73873 1.38784 2.16028 
0.0542008 2.56035 5.7778 2.43943 -6.19536 -4.51206 -4.97913 -4.65738 -6.45571 
-0.407456 -5.7159 -7.09375 -6.75058 -7.21809 -3.55467 -4.35276 -3.96916 -1.07992 
-0.299511 -30.8673 -2.37747 -4.18839 -1.76549 -4.59048 0.234727 -1.43323 -7.78545 
-7.50557 -8.06989 -7.69629 -7.96999 -7.73524 -8.19934 1.15347 1.00065 1.18709 
1.3399 -0.650112 0.13161 -7.66171 -3.73374 -0.993484 -4.30743 -4.35447 -4.73907 
-3.89146 -5.64135 -4.28393 -2.2897 -0.657903 -3.87332 -3.92579 3.08762 -11.4815 
-10.5409 -17.318 -15.7868 -0.292166 -0.339202 -0.205856 -0.184064 -0.339022 -0.200514 
-0.455359 -0.303376 1.1053 -1.94653 -2.25776 -26.6272 -30.9758 -8.94016 -4.37491 
-4.62709 -4.90726 -11.2392 -8.97438 -9.86229 -7.18225 -0.138541 -0.629545 -7.262 
-7.50563 -7.87585 -0.26938 0.242955 -0.731758 3.8385 0.999545 -0.87949 0.0141341 
-0.843754 0.789978 -1.5431 -1.85617 -2.0107 -2.03955 4.15742 4.07487 5.74256 
4.4878 4.76086 4.83874 4.15159 -2.25482 -7.38977 -7.86041 -7.38772 -8.72106 
-8.60327 -10.5331 -9.3982 -21.3125 -24.3469 -17.3703 -14.2435 -17.2779 -9.99245 
-12.2124 -12.8621 -14.6871 -14.0628 -15.9081 -16.5324 -8.60069 -7.27392 -19.0573 
-15.826 -10.2461 -8.27896 -9.99724 -19.8024 -2.78081 -2.75919 -10.475 -7.99778 
-17.6216 -3.36308 -3.93585 -5.9799 -2.90202 -3.59089 -28.2598 1.64581 1.68349 
2.40425 2.74337 -4.015 -1.80444 -4.29235 -1.96039 -5.17051 0.653434 0.113051 
-13.2306 -15.5987 -13.4979 -12.5395 -0.0270529 -0.156792 0.0209648 -0.592714 -2.80884 
-0.126078 -8.50309 -7.59646 -6.99055 -6.5384 -5.30032 -4.32979 -8.51372 -3.29019 
-3.68446 -3.59997 -3.63687 -3.99512 -3.67729 2.5082 1.90666 2.04708 1.46897 
1.02492 -0.410437 1.54992 1.25309 1.9303 1.17666 -1.12759 4.1094 3.77409 
3.27348 4.0229 4.26978 2.39628 1.90275 0.674025 0.593578 0.705319 1.01659 
-30.6771 1.1441 -2.45178 -0.00763897 0.250169 0.514951 -0.788662 -15.9916 -12.9253 
-0.91753 -0.804412 -8.60966 -5.78434 -12.1514 -11.4195 -11.8436 -12.5755 -5.06867 
-5.10676 -5.55245 -24.4557 -4.27733 5.74139 -7.58402 -7.33293 -10.7708 -17.0803 
-15.4805 -18.7336 -17.7889 -17.9438 -15.8407 -3.89644 -4.45118 -4.24233 -2.53963 
-5.07829 2.0515 2.13715 0.0674967 3.25006 -2.83712 -2.25375 -4.59869 -0.245786 
0.188632 -7.94693 3.87288 -7.90786 -24.342 -15.9212 -22.2021 -20.052 -1.4401 
-23.3435 -2.67943 -2.37908 -0.743044 -1.58302 0.571132 0.517624 -0.506163 -1.77936 
-9.86915 -10.9529 -5.71659 -10.6273 -6.02067 -4.88073 -25.3299 -25.5054 -22.5756 
-4.25058 -8.96804 -10.2878 -10.7466 -10.2922 -9.29417 -6.41591 -6.46495 -4.93875 
-4.90731 -5.25631 -7.16385 1.81305 1.22097 -29.2103 -1.62032 -23.0056 0.8759 
-0.866632 2.1318 -2.17757 -0.296493 -0.986071 0.906888 1.00411 -0.633423 -0.47932 
-0.359046 -8.16792 -7.83168 -11.7056 -13.6338 -12.0418 -15.0194 -15.0329 -5.7523 
-10.8601 -13.9741 -13.5479 0.150409 5.26283 -0.595833 -1.14217 4.50102 5.42623 
-12.5915 -9.23792 -11.676 -11.0518 -8.72924 -2.86983 -0.216141 0.0172726 0.0847088 
0.193774 1.12849 -0.770628 -11.8507 0.510306 0.403279 -5.33391 -2.5835 -8.10864 
-3.40557 -2.71925 -3.67795 -5.3228 -4.92135 -3.75906 -3.29985 5.46653 -0.255672 
-1.33907 -1.32805 -1.27319 -0.703382 -1.58494 -0.227899 -1.41147 -1.23421 0.122197 
-0.910931 -7.07343 5.26456 -6.49963 1.0096 0.391693 -4.4434 -0.805314 -9.97345 
-6.88483 -8.17875 -6.7085 -0.0484277 -7.3648 -7.38465 -34.9853 -5.06922 -4.7094 
-6.30043 -6.32232 -5.82558 -5.88358 -12.772 -7.98652 -2.56742 -9.70288 -11.0994 
-12.6258 -3.35727 -10.4345 -6.78551 -3.23422 -6.80154 -7.21091 -7.35056 -5.13115 
-3.32574 -5.94296 -5.48205 -9.84708 -8.81018 -8.07916 -0.871486 -0.940117 -0.978483 
-7.03579 -2.82257 -0.0714203 -0.994893 -0.681998 2.26612 2.34136 -19.972 3.53216 
3.02177 3.1788 2.29138 3.08251 4.61605 -30.7439 4.22162 -7.97044 3.85378 
2.16831 0.752712 4.3122 -3.37295 -1.98929 -1.2071 -2.38449 -0.0362368 -2.3473 
-8.99636 -0.0667662 0.436971 1.11547 -1.50804 -7.15578 -6.01661 -7.12439 0.396785 
-0.0665438 -0.127529 0.388633 -23.03 -25.0031 -25.7265 -15.137 -12.7577 -12.2123 
-21.593 -24.0442 -17.5511 -26.9076 -14.2933 -11.999 -17.2174 -14.9231 -17.9945 
-14.9525 -15.631 -13.4561 -14.3009 -12.4278 -9.85692 -8.46914 -10.3903 -9.96945 
-7.81005 -8.88318 -1.47675 -3.22515 -1.67978 -2.74064 0.199645 -0.390539 -1.75111 
-29.8205 0.353476 0.259256 0.272025 -28.9443 0.458551 0.434593 4.37291 4.55423 
3.96008 4.14139 4.3789 4.02905 -18.953 -12.7362 -10.6508 -16.3314 -15.193 
-18.2785 1.35651 -0.00169481 -0.686397 -1.21198 -0.429497 -0.257824 -3.23106 -1.01857 
-1.43306 -1.69213 -1.62486 -1.63468 -1.56741 -4.2382 -5.08724 -4.11057 -4.75457 
-5.24431 -8.30497 -18.2296 -3.02382 -6.89154 -7.65532 -6.61008 -5.79234 -4.72495 
-5.54269 1.90195 4.57458 4.04126 3.95685 5.31132 5.29499 0.360525 -0.764897 
-0.101506 -10.6129 0.0417939 -0.530935 -0.0449788 -6.30519 -13.3591 -5.40693 -6.98411 
-1.54615 -5.4517 -5.78497 -5.01388 -21.3123 -19.9984 -20.2405 -0.268128 -13.84 
-14.6436 -0.670062 -0.548825 -0.441482 -0.542134 -2.55319 -1.47014 -0.54583 -0.704843 
-1.50805 -1.61382 -0.863009 -13.3231 2.03296 1.14448 1.28247 1.24961 1.14449 
-9.03039 -4.01058 -7.63017 -7.9493 1.59475 0.816503 0.329638 1.02352 5.7671 
5.34299 -7.08181 -6.12465 -18.6602 -0.977406 -8.27834 -6.05181 -0.168058 -0.263859 
-0.48264 -0.509842 -0.372779 -0.21051 0.431904 1.42566 3.47017 -0.767129 2.20136 
0.570656 2.77686 4.51059 4.43636 4.91231 -24.1215 4.53572 -2.22353 -3.83324 
-2.25758 -1.55268 -1.21824 -6.0283 -2.15671 -0.106327 -7.39703 -12.8704 -13.4946 
-3.07607 -3.75323 -5.08101 -5.59662 -4.13225 -2.98777 -4.60402 -2.22532 -2.3869 
-4.45476 -7.77116 -5.3571 -4.37595 -12.0091 -8.74025 -10.2232 -8.01222 -7.28496 
-7.32629 -8.27084 0.271769 -0.879569 0.362961 -1.29165 -0.854027 -12.2986 -6.38248 
-6.11119 -8.71857 -1.19938 -0.836381 -1.00606 -6.25468 -1.2867 -1.6026 1.51217 
-1.70124 -2.60577 -0.650659 -36.7661 1.53027 -3.13343 3.58403 0.147103 0.55268 
-4.70247 -24.2906 0.327252 -0.194087 -1.15441 0.429013 0.76058 -1.35406 2.94665 
-1.83582 1.99234 -0.864146 2.85055 -1.36927 -17.2715 4.38634 4.35453 3.59482 
-1.43112 -1.38941 -1.34031 -1.42193 -1.37284 -0.494013 -20.9156 -5.09658 -4.68849 
-5.19232 -6.09011 -6.35777 -7.18297 -6.40372 -6.67139 -1.32982 -2.81986 -0.445287 
-0.0925429 -1.73405 -20.2823 -5.95664 -6.48907 -5.4864 -31.1943 -30.4789 -6.30243 
1.0261 -1.21667 1.59507 0.647501 -0.507727 1.02043 0.696831 1.09906 0.840191 
0.0362088 -8.77394 -8.45027 -7.40724 -7.17224 -7.49574 -7.9062 -8.0893 -0.0280659 
-1.59642 -0.094878 -5.24537 -20.5168 -19.9705 -17.9982 -29.9034 -22.099 -0.486428 
-1.5937 -2.27644 -1.14002 -1.89604 -2.40526 -1.37736 -6.8029 -6.94459 -6.87732 
-10.039 -19.9214 -12.2537 -10.1057 -9.50171 -9.28372 -12.7635 -11.8037 -12.7452 
-14.1843 -10.9017 -10.9458 0.434325 -1.25282 -1.18694 -1.23664 -1.27042 0.867508 
0.792486 0.90546 1.25661 -0.0359705 2.92306 2.64647 3.28315 0.468116 2.26743 
2.31098 2.03186 -13.1097 0.540098 -16.4722 -13.3217 -16.4324 -17.8628 -13.3822 
-10.8645 -17.0977 -4.83315 1.03 -5.06863 -8.55559 -4.45969 -3.39972 -4.96123 
-5.02445 -1.85322 -2.04709 -9.09659 -8.07055 -8.69012 -10.4135 -3.21505 -4.49996 
-5.5079 -6.67425 -7.48599 -5.44369 -7.9524 -6.72745 -5.72627 -8.13514 -8.3014 
-1.15343 1.78033 1.74867 1.92333 1.33308 -1.7022 1.97448 1.862 -6.57122 
-6.63465 -8.52871 -6.9952 -7.86896 -6.71471 -7.7468 -2.3518 -11.8976 -9.85143 
-8.03657 -15.6258 -6.09793 -13.9859 -12.7479 -12.1802 2.57217 3.25589 -0.24073 
2.88349 4.08363 3.548 -7.53622 -8.00149 -8.64721 -8.15288 -9.34543 -4.75751 
-7.57519 -6.10891 -7.91904 -6.97356 -7.84219 -11.3075 -8.60931 -5.40629 -7.58305 
4.79714 5.16557 5.18674 5.16873 -0.846895 -1.66451 -1.77284 -0.977774 -3.13729 
1.75172 1.24924 -1.16976 2.06474 1.60176 1.58425 -0.464177 -4.96637 -3.37171 
-3.87978 -4.44249 -9.761 -2.42656 -3.20961 -9.03782 -1.13567 -0.165065 0.333707 
-0.114741 4.47061 4.10139 4.09381 -0.590789 -0.73158 -16.5982 0.538976 -19.2755 
-0.902075 -2.71626 -1.25081 0.905952 -6.48916 -7.80051 -4.16494 -4.34439 -7.65627 
-7.37689 -7.55778 -3.03252 -3.32237 -3.36922 -0.823874 0.114064 0.0366425 -0.0915917 
0.234302 -0.0227952 -0.129879 0.0767939 -0.880075 -0.341091 -1.01111 -1.56441 -0.822386 
-21.172 -1.35001 -22.0334 -0.225722 -0.254428 -0.222793 -0.432581 -0.409105 5.46906 
4.46588 4.93845 4.9368 4.95452 5.19901 4.53031 -9.01197 -3.61742 -9.79633 
-40.5972 -9.38729 -3.43771 -1.75814 -1.85374 -1.69739 -6.65064 -3.78406 -2.10032 
-1.17754 0.96924 0.0747536 -1.96385 1.14901 -0.788997 -1.21149 -2.58236 -5.19246 
-6.264 -5.97954 -0.389017 0.109207 0.0900584 0.272227 -1.6096 -18.9013 -6.91148 
-2.27214 0.318847 -17.9163 -9.71327 -2.35005 0.173178 -10.4687 -4.0335 0.374538 
-8.36891 -6.83114 0.187317 0.146453 0.341575 0.338684 0.184427 -3.42567 -2.49686 
-1.89526 -3.13075 -3.50205 -3.06856 0.618092 0.0550362 -1.32576 1.05915 0.867375 
0.95466 1.83432 2.35631 1.96775 2.45207 2.19845 -5.23625 -0.957617 -7.76714 
-7.98819 -2.55772 -4.52967 -1.87157 -0.253172 0.307626 0.292554 -0.572725 -1.15333 
-1.24058 1.20453 0.11869 -0.056571 0.911363 -17.5565 1.40873 0.693168 1.39313 
0.327183 -1.38924 -1.35385 -1.2962 -1.16906 -1.42005 3.9764 -2.24214 1.02803 
-1.19607 -1.2704 -1.22004 -12.5177 -27.048 -24.4377 -24.6149 2.62048 4.07742 
-1.5578 -1.32188 -1.28409 -21.1619 -2.35504 1.26897 2.24611 -0.887257 -0.450109 
-0.282358 -0.281672 -0.242988 -0.259727 -17.5973 -2.66089 -4.26675 0.133032 -0.859561 
-4.58088 -1.49156 -0.672233 -1.90485 -2.03638 0.995021 -0.137072 -0.96554 -6.94626 
-7.74155 -6.53007 -7.86744 -22.1686 -9.5576 -0.0978613 -3.58121 1.76366 -3.09199 
-1.56744 -4.44229 -5.05713 -4.8254 -5.19634 -5.56383 -5.40231 -5.7698 -5.05682 
-5.47785 -5.40769 -0.111693 -0.633556 -0.766216 -0.593416 -0.747354 0.0807339 0.0862193 
0.0698634 0.0753487 -0.984831 -1.20065 -1.08177 -0.791617 -1.11166 -1.09046 -1.31714 
-1.32445 -1.00074 1.29062 0.815351 -1.02277 0.609382 0.989553 0.355514 1.66598 
-10.5459 -9.34464 5.82203 -7.51989 -8.89695 -12.9586 -14.0268 -8.22158 -12.8409 
-14.3675 4.18941 4.35323 4.18403 5.33333 5.41556 -7.28045 -7.02278 -7.75015 
-6.41712 -7.19272 -17.45 -7.24212 -5.9187 -5.02512 -1.12678 -1.03844 -1.08431 
-0.97411 -1.04587 -1.11558 -1.05659 -31.6975 -23.8098 -2.41354 -1.03449 -0.432174 
-0.638033 -5.10281 -4.76666 -7.31757 -6.23734 -3.44736 -11.9611 -17.503 -16.5883 
-10.651 -12.2818 -13.6044 -2.42221 -2.46303 -3.7234 -5.49162 -6.75399 -5.9582 
-4.42053 -7.5362 -1.76443 -2.6672 0.0664665 -0.104483 0.0297201 0.110317 -0.592399 
-0.702772 -0.579802 -2.66434 -0.64573 -0.277701 -1.6158 -0.71269 -0.294341 -1.44206 
-1.40531 -1.35014 -1.40414 -1.3449 -7.15011 -8.36631 -11.5624 -17.4081 -8.45115 
-16.3334 -12.2721 -17.251 -20.1624 -0.600404 0.00172236 0.404707 -7.32647 -0.48728 
0.842029 1.91061 2.22418 1.56663 1.75074 3.75334 -30.1792 -1.03338 -0.924492 
0.0890905 -0.358591 -0.69769 -8.92435 -6.95859 -8.15222 -9.912 -6.87464 -10.7559 
-5.14204 -3.37127 -8.52467 -12.3289 -0.615907 -6.00122 -5.43085 -3.46187 -7.60254 
-7.36897 -7.71234 -7.10491 -1.22356 -14.9205 -17.4359 -16.5689 -17.3306 -17.2546 
0.677424 1.24864 0.422462 -1.48136 -0.612046 2.01377 -23.004 -6.57501 -25.6661 
-7.30493 -7.41972 -7.77375 -8.11534 -5.37573 -0.253195 5.82705 -6.69264 -2.84631 
-6.9833 0.251753 3.26392 -8.19767 -0.988883 0.137352 0.125026 -0.016339 -0.124135 
-0.0337236 -0.0225166 1.20984 -1.12712 0.68483 -1.10415 -1.07891 4.36188 3.75328 
2.19299 2.44108 -0.361696 -21.5356 -22.2341 -19.5602 -26.6622 -25.149 -25.9521 
-24.4579 -29.5666 -33.9158 -25.5246 -5.69501 -5.70805 -5.67701 -5.38951 -10.1085 
-10.1085 -10.034 -10.2515 -8.54752 -5.90406 -7.66679 -5.44787 -5.51997 0.308281 
-0.605565 -8.16084 -0.465296 -2.55842 -6.00123 -6.76103 -1.4006 -5.88499 -5.04662 
-6.09233 -15.22 4.1992 2.62809 2.09388 1.65971 -0.130916 -18.212 -0.148549 
-18.6623 -20.5428 -3.76158 1.83956 1.96151 1.78298 -15.33 -10.7534 -11.5244 
-10.9622 -10.4564 -8.87959 -5.86342 5.18061 5.36619 4.68914 4.91574 5.10933 
4.82985 -0.205567 -0.26422 -24.8517 -1.29421 0.00550053 -0.0935572 -21.3296 -16.5776 
-17.5552 -8.00012 -7.85326 -5.1291 -6.43329 -8.19859 -7.79716 -1.73423 -1.90857 
-1.46434 -7.48434 -7.79972 -7.67313 -7.40651 -6.6766 -7.63174 -3.24471 -0.201949 
-2.64671 -3.5958 -3.46764 -5.36855 -5.52683 -0.646226 0.0641287 -28.0877 -24.6664 
2.33541 -2.14184 -2.96496 -8.08603 -9.76453 -1.63766 -0.922608 -1.9919 -2.55966 
0.460939 -27.111 -2.4626 2.02108 -7.97288 -0.999983 -15.2616 -12.1741 -11.7372 
-12.3563 -11.9194 -29.1504 -22.038 -19.8349 2.84812 2.84381 3.19989 3.19557 
-9.73901 -10.0727 -7.85873 -7.8109 -7.1801 -2.55377 -5.39516 0.0589192 0.0733998 
0.111554 -0.570194 -0.312341 -0.152575 -8.10094 -7.81847 -0.450511 -9.10261 -7.44007 
3.31233 2.75375 3.10664 3.50757 5.32544 3.08522 -7.23844 -7.26339 -6.69779 
-7.78127 -7.02141 -7.36008 -22.724 -19.7172 -24.5059 -20.9045 -11.1619 -0.265599 
-14.9681 -12.3419 -10.375 -13.7915 -15.4743 -15.8387 -0.123092 -15.9088 -18.6123 
-15.206 -7.25575 -7.49119 -7.54126 0.322344 0.341049 0.545947 0.624529 0.786408 
0.567173 -23.2218 0.666319 0.708965 -23.1101 -2.91034 1.60014 2.16285 -4.6129 
-3.95057 -3.98659 -3.4189 -3.48109 -3.51712 -26.1802 -27.349 -29.5692 -24.207 
-0.0701954 -0.282408 2.29656 0.140672 1.81602 -0.0551574 0.779759 2.71678 -1.88853 
6.01545 6.06057 4.56981 4.6418 -7.86309 -7.91031 -13.7592 -13.4032 -17.8358 
-0.314162 -8.53989 -0.164668 -0.210453 -0.128094 -24.8228 5.4449 2.76213 -29.5367 
-9.18057 -26.7776 -27.705 -29.6481 2.16868 2.14235 2.52225 2.54858 2.94969 
3.23979 3.78234 3.91545 4.37778 2.49117 3.60492 -4.84517 -3.8083 -2.99139 
-2.1438 -6.1961 -7.88489 0.0711564 3.56673 1.1279 4.92332 4.67475 -6.70912 
-6.33918 -4.50676 -2.40949 -16.705 0.391092 -14.157 -0.148827 -18.355 -1.8359 
-6.75851 -1.70273 -1.43588 -1.3495 -4.04134 -37.2095 -40.3351 -4.39392 -4.71098 
-7.56288 -4.28277 -7.41859 -4.09865 -1.64811 -1.76932 -1.79825 -2.85539 5.70268 
0.418073 -1.95027 0.102912 0.0231431 -0.646338 -0.542976 -7.6765 -0.147094 -17.4457 
-6.75576 -2.39252 -1.74667 -33.9598 0.0499099 -0.0135041 -2.54867 -0.991633 -1.78625 
-2.13207 -24.8642 1.46025 0.538869 1.02126 -14.1204 -14.7417 -13.9116 -14.2889 
-13.7777 -2.06177 -5.79579 -6.49059 -0.908918 -16.4458 -16.5039 -16.9091 -16.1019 
-6.72271 -13.9491 -12.7102 -11.3835 -9.47197 -11.3795 -7.39914 -5.61869 -6.29176 
-6.57816 -6.73186 -0.119546 -1.31143 -1.2463 -1.35929 -1.74802 -1.27151 -2.58493 
-2.45153 -2.69292 -7.07957 -4.863 -20.2671 -1.42684 -6.07914 -15.7354 -9.5784 
-5.8388 -0.398653 -4.19139 -10.2731 -11.2202 -2.28225 -14.824 -2.157 -1.15703 
2.00979 2.57094 1.27259 1.59794 -10.7505 1.76609 -28.2634 -2.14742 -5.36968 
-1.61299 -6.03356 -3.29955 -10.1904 -0.366342 -0.580442 -0.855832 -1.16885 -3.89938 
-27.2026 0.497338 0.399471 4.72551 3.88779 3.54511 -41.9169 -39.3529 -24.7027 
1.2427 -4.3547 -1.11579 3.57986 2.07688 -5.72962 -4.62991 -4.47788 -6.45993 
-6.59627 -6.27546 -6.61921 -2.2942 -2.71743 -2.85454 -2.96354 -2.79865 -2.90765 
-0.0963361 -0.0749548 -0.148496 -6.69563 -19.991 -5.52804 -2.41833 -1.90465 -3.23203 
-4.87919 -1.96953 1.45764 -6.50437 -2.12385 -2.05933 -15.7828 0.39937 -1.80324 
-0.0729305 -2.05586 -2.00984 -2.15101 -1.74283 -1.53828 -1.09543 -1.12132 -8.01721 
-8.67627 -8.71101 -8.58878 -7.88473 -7.16738 -20.8029 -24.2373 -25.0759 -33.5735 
-34.8587 -31.839 -30.3227 -13.1468 -27.4436 -25.6996 -39.4185 -35.8762 -35.0127 
-29.8376 -34.1935 -41.2321 -39.9886 2.07843 2.53622 3.18997 -1.20005 -1.27607 
-26.8171 2.59846 3.1856 -15.0342 1.1204 2.69478 0.512518 0.813748 -0.6124 
0.500195 -1.09818 -1.77432 -2.26683 0.133534 -0.854622 -1.24878 -1.35863 -2.15928 
-0.171306 0.298158 -1.30943 -1.0061 -30.0127 -3.46311 -3.48473 -2.80705 -1.32689 
-1.44972 0.981116 -0.672326 0.896898 -7.53192 0.753296 -9.22777 -11.4298 -12.1192 
-11.6616 -10.9281 -1.09399 -0.519867 -0.315107 -16.8595 -0.28491 -0.480973 -1.0197 
-1.06506 -1.03224 1.4649 -2.15227 -2.04886 -12.1944 -14.2277 -14.0746 -15.1433 
0.134449 -10.7802 1.47342 1.79444 2.36077 2.1267 2.48372 2.24965 2.49909 
-27.3857 -29.0256 -22.1047 -11.9677 -20.1397 -21.9172 2.58729 -1.39356 0.463077 
-7.42515 1.07421 -0.563289 -7.5108 -7.38602 -4.22096 -6.59322 -6.91943 -7.45443 
-2.43231 -2.73334 -0.542664 -0.791986 -3.85511 -10.0713 4.62994 4.60205 2.285 
4.34989 4.18778 1.61205 -7.85054 -7.88131 1.31971 1.4463 0.704828 0.63594 
0.209731 1.52306 -1.81671 -1.72607 -1.67006 -1.53753 -1.15338 -0.890932 -0.791169 
-28.266 -1.20593 -2.33725 -0.299277 -12.6564 -12.6664 -17.0641 -20.4851 -15.6388 
-19.0598 -10.2388 -10.8782 -5.98324 -9.7612 -16.101 -11.5161 4.43963 4.44092 
4.24457 2.9381 4.04297 -0.246439 -0.103132 -12.7481 2.19555 1.81493 -1.59843 
0.507195 -1.16605 -1.08222 -1.3978 5.56082 -1.17033 0.585435 0.938941 -0.0132958 
0.647733 0.888407 -8.40263 -8.00154 -7.32834 -1.80318 -2.20695 -2.25177 -2.29857 
-2.86258 -2.7895 3.93729 0.486322 -4.214 2.30561 2.42955 1.69854 1.91599 
0.0428738 0.164691 4.11905 4.61029 4.51367 -2.24775 -0.245498 -5.15421 -10.3267 
-7.6187 -0.783165 -1.01462 -1.06611 -0.940893 -0.889412 -0.229124 -0.222125 5.97361 
-1.09413 -19.816 -15.2474 -8.10924 -4.60509 -3.759 -5.93985 -6.33791 -13.3172 
-9.70922 -15.747 -1.29484 -1.25239 -1.67688 -0.875786 -1.77331 -12.7228 -11.4922 
-12.82 -11.3918 -28.0742 -9.75057 -9.88137 -7.41567 5.37011 -4.05828 -5.59843 
-4.91929 -8.12744 -9.87533 -8.71426 -7.63447 -8.79554 -19.2103 -16.9695 -27.9618 
-29.6769 -22.2071 -18.7647 -6.52798 -10.9373 -30.0562 1.9075 -1.79098 -21.7856 
-1.84733 -25.8768 -4.60161 -9.22142 -6.64108 -7.67104 -8.0071 -9.61173 -17.4845 
-12.3321 -0.369552 0.417227 -0.394557 0.528257 1.2239 1.27601 1.0077 1.05981 
-2.98778 -11.4338 -7.62744 -0.0390987 -14.3647 -2.64634 -0.564966 0.119948 0.331355 
0.0389397 0.0929146 -0.81526 -1.15398 -17.6666 -16.0228 -15.7075 -12.5238 -11.5693 
-11.8775 -13.3156 -13.3098 -0.444823 -12.4331 0.0199287 -0.118699 -1.49357 -0.415464 
-1.12885 0.45298 -2.18428 0.927849 -5.05407 -7.55869 -8.37619 -0.344823 -1.15659 
-0.698033 -0.597941 -0.834079 -0.926551 -0.838294 -0.11902 -16.7902 -0.44359 -30.1061 
-1.14007 -1.23115 -1.129 -25.7578 -2.42895 -17.6767 2.14599 -2.54388 -0.757272 
-0.710511 -1.28573 0.752375 -0.750827 -2.2669 5.64475 0.221521 -0.2236 -3.51754 
5.65889 1.31153 -24.4611 -2.03389 -1.22723 -0.306898 -14.8609 -18.8001 3.0366 
3.41621 2.68723 -2.5122 -2.90037 -1.31919 0.199553 -0.158869 -1.10388 -1.19215 
-0.606676 -3.87981 -1.3712 0.124486 0.852601 -0.658562 -3.66377 1.55252 -0.466283 
-1.17917 -1.25802 -1.20167 -1.12283 -1.2085 5.49822 2.64999 3.28498 4.52432 
-28.5115 3.04173 -4.96943 -0.134982 -24.958 -0.180767 5.74223 -2.4207 0.693014 
-0.514366 -0.888335 -0.892057 -7.86996 4.52299 -13.0447 3.94902 3.1676 1.22057 
-6.96315 -7.38731 -1.93357 -0.465669 -12.0273 -9.53756 -6.68394 -6.78376 -5.32941 
0.89065 1.50104 -17.2911 1.91532 1.97422 2.29695 5.77589 2.56205 -5.31061 
1.67443 -0.052127 1.79247 2.49323 -7.35784 -0.536956 1.07162 -0.583609 -27.833 
-0.7817 -0.999128 -0.867646 -0.185668 -0.192881 0.426208 0.399373 0.331234 0.811434 
0.528545 0.953586 1.71235 1.32306 -0.187487 -0.104037 -20.6008 0.34415 -17.2105 
-2.63902 -3.98925 -0.202765 -37.62 -3.707 -7.16549 5.5564 5.50487 5.2688 
4.02316 2.33417 4.11639 -0.0393572 -1.08924 -1.22716 -5.84776 -5.80391 1.23129 
1.37942 -2.4193 -6.74267 -7.26894 -6.55459 -6.62607 -3.40573 -0.22503 -0.314494 
2.16561 1.04419 1.36588 -18.587 -2.61094 -9.0689 1.96259 1.99145 -0.0621269 
0.485495 0.00604659 0.638705 0.693784 -0.530409 0.464318 1.11282 -1.97215 -5.94207 
-4.2296 -27.4733 -15.8948 -5.66415 -4.58967 -4.25347 -5.54083 -8.33327 -0.206262 
-1.40941 -3.82815 -28.3452 -2.28718 -7.88793 0.53279 -7.91766 -7.86955 -0.708187 
0.244242 1.27319 1.66749 -1.42384 -3.73846 -0.158192 -0.599034 -0.902535 -1.24073 
-1.23357 -1.21407 -7.83968 1.01099 -0.57603 0.885231 -7.22278 -5.59054 -0.855014 
-1.30954 -0.140498 -0.459225 -1.38218 -1.15903 -0.988135 -1.35753 -0.672035 -1.44923 
0.717605 -1.36576 0.348227 -1.21487 -3.90088 -3.00135 0.164992 -4.3026 -4.31183 
0.819344 -4.40011 -11.6019 -3.12808 1.40522 -1.17344 -1.20226 -0.810226 -9.39847 
-9.83093 0.648174 -0.209597 -8.63559 -2.08352 -11.2269 -0.588636 -2.43576 -4.38439 
-6.25595 -5.17642 -6.60783 -2.98774 -1.9505 -1.73304 -0.777111 -1.82313 1.19753 
-6.99629 -1.92804 0.282297 -2.55945 5.18834 5.67375 0.618983 -3.43767 1.90062 
5.47125 -9.74123 -3.9318 -17.6551 -0.131293 -14.8023 -14.7302 -18.5083 -20.4964 
-24.3302 -1.54918 0.0837001 -19.0889 -1.36713 -6.13953 0.701983 0.149309 -8.60631 
5.31835 3.70835 -0.0209132 0.978132 -5.99526 -5.95653 -2.32977 -3.17423 -2.4616 
-6.33498 -2.00907 0.0395123 -9.14042 -5.38756 -1.46101 -5.24411 -3.17503 -15.2796 
-0.0041386 1.35679 3.29463 -5.03067 -7.33782 -4.00474 -3.36832 -1.06079 -5.45057 
-5.73811 -33.5689 -1.36411 -1.00493 -0.947089 -1.14382 -1.61002 -1.23885 -22.0385 
-0.881343 0.00464462 -0.228496 -11.366 -20.3774 0.158274 -0.0499731 -0.396014 -0.362452 
-0.29016 -0.426122 -1.22408 -0.61439 -5.37391 -1.29578 -5.43713 -0.74979 -2.10586 
-5.87217 0.818817 -1.99559 -0.314372 -0.834469 -0.442338 0.90141 -0.0129858 -1.54376 
1.64102 1.32087 0.15007 -9.86845 0.706696 -28.2711 -0.733523 -9.85302 -11.7029 
-5.30708 -5.22827 -1.6338 -1.98107 3.76127 -0.0587419 -1.88221 1.00171 2.1274 
-9.25523 -3.12538 -6.09215 -13.6406 -1.23647 2.32093 1.5414 -0.849131 -0.237406 
-0.945668 -1.14053 0.672473 -1.06233 -0.855555 -1.1098 -0.920817 -1.06543 -1.34579 
0.455766 5.50253 -5.19878 -7.92495 -9.24258 -9.5295 -9.64959 -8.11195 -21.8285 
-2.06897 -1.60432 -8.04996 -8.01381 -9.93222 -7.68675 -8.86353 -8.32428 -0.100165 
-9.00382 -7.99818 -7.34384 -8.59496 -7.54723 -7.80363 -2.0094 0.144969 -5.2479 
-1.23646 -0.872395 -1.30205 -1.2292 -1.2334 -1.23196 -0.877662 -1.24847 -26.363 
-1.15898 -11.7563 -0.0243008 -10.1812 -5.99004 -23.6391 -13.5737 -26.5667 -9.68496 
-4.30095 -8.71404 -11.16 -9.44034 -7.56904 -8.17098 -12.8367 -6.80065 0.514933 
0.101379 -0.0907045 0.14153 -34.2778 -17.6574 -38.6648 -0.0313791 0.990247 1.60191 
-27.0239 -0.755002 -0.169107 1.00841 1.29895 -48.0307 -2.07242 2.87839 2.32948 
-29.9015 -26.0301 -22.207 5.33362 -12.7039 -15.9865 -14.5951 -10.5346 -9.83509 
-1.50058 -2.89237 -3.36022 2.47777 -4.42841 -2.33952 -2.28509 -2.47177 -1.6964 
-1.47583 -2.3459 -17.9353 -0.353057 4.6498 0.722905 0.158414 0.441697 -28.5999 
-15.7339 1.47871 -1.15453 -1.63691 -1.22859 -1.22525 0.553718 -0.900556 -3.22978 
-2.7892 -0.370512 0.0986458 -0.640837 -6.47482 -1.33328 -6.57529 -2.52329 -4.81076 
1.6371 -2.93084 -0.848945 -0.261496 -3.49832 -1.50141 -5.88626 -15.7002 -6.56526 
-7.16068 -5.63103 -1.43055 0.798162 -0.681856 -0.0707042 -0.295172 -2.39407 -1.31453 
2.02002 -1.02098 0.786384 2.14474 0.363999 -5.44431 0.389072 -3.08847 -33.3254 
-3.44425 -3.40486 -3.21453 -3.35307 -0.743454 -4.67155 -2.83413 -1.79553 -2.47446 
0.915985 3.57984 0.690265 -1.40991 0.354421 -0.116202 -1.21635 -1.25444 -0.262258 
-25.6658 1.58698 -0.26434 1.0307 1.65931 -28.0974 0.539575 0.397476 -12.605 
5.49233 1.52704 1.33084 -0.777972 -0.348526 -0.55517 -1.02101 0.423163 -1.15371 
-0.1739 -1.56309 -10.7406 -16.8403 -0.0481727 -1.13768 -1.18683 -1.49141 0.0251206 
-3.73942 -1.09986 -6.32192 -6.54167 -9.77688 0.229032 -7.14961 -8.97477 -8.03404 
-10.4036 -2.78367 1.96156 5.74879 5.54382 5.73311 -2.54978 -2.66239 0.0980664 
0.17143 0.40756 -0.278179 -0.0331016 0.487921 -3.66955 -36.2102 -16.0071 -13.7714 
-30.5919 -3.0521 -0.278487 -1.62136 -3.2805 5.79985 5.71043 1.97083 5.55036 
5.51575 0.471742 -5.44941 -21.8096 -23.107 1.5508 -3.03811 -0.608308 -0.0843408 
-4.57218 -5.95632 -26.1519 5.66367 4.21906 4.87978 0.299212 -3.35866 -5.65882 
-3.2154 -3.23873 -4.36125 -12.8166 -4.63467 -3.40822 -3.48533 -3.71893 -1.0193 
-1.01146 -0.843792 -0.755701 -23.4969 -1.13745 -0.978686 -1.40058 -2.42729 -4.80607 
-6.38726 -8.16711 -4.25387 1.11185 -0.450599 -0.636619 -6.84597 -6.87458 -6.93275 
-6.96136 0.382981 -7.49251 -0.990298 -0.791279 -0.912495 -0.868358 -1.09938 -1.34072 
-1.15103 -0.271694 -0.103699 -10.2598 -4.91612 -7.60421 -0.230548 -7.22057 -1.81638 
-7.70031 -0.0241895 5.52075 -0.502144 -7.89928 -0.352876 -7.83336 -0.24731 -0.105345 
0.122789 -0.293346 0.0229547 -0.338846 0.100056 5.21727 0.773574 1.00037 5.01025 
-1.90278 -0.522845 -0.546402 -1.20884 0.315009 5.8999 -0.841456 -1.23291 0.147501 
-0.0216578 0.111411 -0.0577473 -1.02902 -4.82 0.0218575 -0.147301 2.57768 1.70207 
1.19402 -1.06888 -0.016756 2.30627 0.904574 -0.315672 -0.512892 -0.0833237 -2.69652 
-4.47562 -3.09711 -4.1909 -1.98142 -12.0599 -8.54689 -7.17403 -6.77261 -3.03319 
-3.51888 0.60777 0.295942 2.99668 -1.01014 2.1378 2.37378 2.83798 0.491675 
-25.4517 3.22791 -3.66082 -2.49819 -3.51465 -1.94896 -3.79298 -4.45294 -8.83284 
-5.98012 -3.55997 -11.4023 -7.50925 -9.62547 -18.5791 1.16961 -1.34973 0.435743 
0.268364 0.968682 -14.2298 -1.64365 -0.657312 0.0999851 -1.9489 2.08218 -1.01853 
2.70587 -15.157 1.85966 1.79233 -13.8767 -16.4866 -1.28595 -16.0461 0.266728 
0.331498 0.332119 -6.45934 -5.98213 -14.5462 -19.0969 -5.86552 -5.25179 -6.36516 
-6.03551 -7.64307 -7.31744 -7.20879 2.19647 2.40367 4.48845 4.47878 4.43151 
-1.44778 -0.00911587 1.80548 -38.6804 4.91741 0.370379 1.32074 -0.822866 3.69105 
-0.198163 3.5434 2.94388 1.33442 2.37689 -19.208 -0.146767 -2.74482 -2.66076 
-4.3759 -2.89296 -3.16642 -0.74976 -2.94824 -15.2868 -17.6776 5.60639 5.61308 
-3.24088 -0.287065 -0.210661 -0.234997 -1.69553 -7.08984 -6.8874 -6.82224 -2.04585 
-2.13215 -2.04461 -36.9898 -8.81606 -19.7428 -1.11991 -1.16704 -0.402548 -6.61789 
2.87109 -15.6157 -32.6608 -0.180645 3.76445 3.38044 -0.886116 3.72095 3.35489 
0.205708 -32.0633 -36.4503 2.11727 0.792865 -0.926775 -1.17898 -34.8043 1.72259 
-5.44665 -30.976 -2.589 -27.8839 -6.98682 -18.9907 -14.2325 -7.79727 -8.10281 
-4.42888 -6.3254 -2.41638 -0.829318 -8.80359 -9.59944 -6.21017 -0.217674 1.68138 
0.263168 1.60991 2.52621 -1.1795 -1.20975 -1.20662 -0.740044 -1.13522 -1.03372 
-0.990812 -0.928643 -1.21618 -1.14478 -1.16277 -0.398044 -0.298966 -14.4056 -22.0047 
-19.2105 -3.96476 0.323025 5.32273 -2.57281 -1.74967 5.08534 -3.34384 -6.92966 
-24.7704 -7.45637 -3.97191 -4.35172 -4.74674 -15.9709 -3.92955 -1.88957 -20.5952 
-5.92736 -2.73565 -4.78948 -20.6319 -6.40141 -1.46158 -7.14141 0.0596009 -0.410833 
0.728763 0.878143 0.449606 0.364359 -0.696559 0.175496 -2.44958 -0.42724 -13.9438 
-7.90846 -3.42507 -7.10579 -4.8605 -5.20907 -5.22525 1.78382 1.31033 1.06297 
2.70424 -0.351188 -1.22731 1.97664 0.867943 1.82754 -0.31318 3.57979 0.189443 
1.49455 2.26062 -1.01252 -0.216172 0.0451806 -8.03127 -8.16661 -8.21971 -7.87384 
-16.9423 -1.70905 -1.83754 -16.2075 -15.2146 5.66989 4.98874 3.32459 1.938 
-0.449732 3.13989 3.31798 -0.857007 -20.1596 6.02525 -1.2051 0.69675 -39.1494 
-1.42265 -5.86852 2.38426 1.183 3.13583 2.76868 2.24112 -1.86353 -3.38478 
-2.61229 -22.2522 -13.7135 -0.460377 -0.398132 0.0912757 0.148503 -27.9799 -38.1217 
-0.279767 -33.6726 -0.171942 -5.64796 -5.37105 -17.5598 -1.33927 -0.376093 -0.399339 
5.36313 -1.06851 -1.00026 -1.22413 -1.16877 -19.9433 -17.9578 0.520885 -18.3144 
0.658656 -1.08189 -0.741689 5.36965 -15.4623 -13.2628 -18.1683 4.12679 -8.26775 
-8.54909 -8.15952 -4.57276 -3.51573 -2.74815 -1.72543 -5.59701 -5.01104 -2.45463 
-3.0406 -10.201 -10.6199 -12.0814 -11.8959 3.36352 3.55447 2.76708 3.07599 
-1.37742 0.98541 0.674394 -6.3102 -10.3998 -3.54972 -12.8282 -8.97708 -11.6983 
-2.05352 -3.01669 -3.06395 -1.78076 -1.13645 -1.15306 -3.93016 0.16382 -2.04367 
-1.81347 0.893085 -5.63208 -4.76005 -0.187876 -0.652221 -0.152219 -1.19516 -0.159433 
-0.161035 -6.16206 -5.79805 -7.40044 -9.7078 -0.19358 -25.9573 1.01199 0.620686 
-7.4934 0.00819279 -17.321 -6.18448 5.07729 -3.57611 -4.67437 -4.39322 5.4761 
-1.23879 -9.0289 -7.99491 -5.01323 -0.343134 -1.32518 -26.1873 -7.14723 -31.866 
1.61081 -13.4531 -0.1119 -23.7967 -17.5435 1.61082 0.907018 1.10565 0.314789 
1.02181 -19.9066 -0.566925 -0.289264 -29.9461 5.77759 -6.52268 -8.79584 -7.38273 
-6.95115 -0.280639 -2.15751 -1.22507 -1.25012 -1.27293 1.52875 0.156076 -12.7017 
0.232903 -1.34249 -7.73885 -0.306378 0.761252 0.789085 2.02775 -0.434242 -0.109041 
0.799205 -17.6404 -18.0332 1.51995 2.04239 1.84238 -2.06377 -1.46018 -1.97359 
-1.88604 -8.84161 -12.8682 -34.7519 -25.9814 -24.6445 -29.1604 -23.345 -27.4917 
-18.8462 -27.9777 -30.5197 0.154507 -0.942955 -0.910883 -0.0777867 0.321876 0.228307 
3.41903 -0.670656 -3.61234 3.57845 3.46678 -3.42268 -1.46767 -1.03192 2.52757 
-3.63139 -3.48715 -3.48403 -3.33215 5.26807 -1.8938 -3.49916 -3.62084 -22.8256 
-24.8458 -25.7352 -28.5575 -20.4146 -24.0809 -0.429768 0.987361 -2.55984 1.14276 
1.02667 1.16836 1.26189 1.08764 0.670159 -5.98884 -31.4224 -5.51984 -27.2727 
-0.724693 -0.689818 -0.593933 4.29768 4.11531 -1.38978 -3.72433 -30.2002 -0.146713 
-0.621679 -0.725374 -0.233025 -0.0759102 -0.15059 -0.0962922 -30.3185 1.30938 1.49898 
2.24858 -0.144649 -0.348513 1.55808 2.57572 0.97181 0.32304 5.57714 -1.2679 
-11.5988 5.52403 -0.0822219 -0.968954 1.07881 1.12424 5.26318 1.90307 3.05745 
2.6725 2.39103 1.6317 -19.8784 2.12823 1.85023 -8.50542 -8.24459 -10.7146 
-9.88928 -7.73965 -8.82508 -9.21033 -3.2738 -7.03159 3.28705 2.85089 2.85598 
2.41982 -5.98655 -39.7911 -34.1102 -5.10137 -1.46374 -1.47165 -11.1979 -9.69847 
-10.9942 -7.93012 -36.8253 -19.6214 -0.639446 -0.661423 2.5473 -13.5954 1.70987 
0.740269 1.56041 -31.7592 -6.92799 -21.023 -6.18416 -6.19113 -6.55949 -6.56646 
-0.625825 -0.323318 -24.2696 -5.71818 -5.041 0.108293 -0.288175 -2.91736 -2.14243 
-0.205478 -0.035045 -1.15859 -0.38606 -0.109055 -24.0957 -2.11657 -21.6022 -0.188405 
5.46288 -4.51568 -1.30903 -4.68751 -6.8041 -3.84661 -3.86193 -30.6474 -30.1718 
-35.6867 -30.7851 -35.1092 -5.33412 -4.35909 1.95477 1.52654 0.999279 3.46714 
2.46935 3.42227 3.24961 4.35009 4.12884 -5.46224 -30.2622 2.24277 0.92414 
0.657926 1.00195 0.723388 1.49371 0.644163 -0.295903 0.000622485 -30.4936 -1.88565 
-0.581388 0.123745 -0.203147 -0.984368 -0.00889078 -0.930911 0.0588521 -0.729882 -0.142177 
-10.3594 -9.47045 -8.69923 -5.36598 -9.71855 -8.64035 -22.7865 -28.0398 -31.1917 
-21.0841 -27.0882 -0.312251 0.595693 -1.05238 -0.260015 -0.297162 -1.13797 -0.741274 
0.326386 -24.4048 -26.4361 0.254745 -4.85503 -28.1479 -1.53677 -1.47893 -5.9411 
-1.2434 0.86818 -10.0573 -16.2633 0.10229 -17.0222 0.124523 0.0621123 -0.444592 
-2.45025 1.77667 -33.1578 1.56282 1.57495 0.134666 -0.551292 -4.14484 -3.01716 
-3.56206 -1.65412 -1.03026 -0.239895 -5.36856 -0.21005 -5.42263 -6.24485 -6.25201 
-8.21028 -6.96184 -8.34376 -34.4849 -25.031 -1.36907 -26.9406 -18.7465 -22.636 
-22.5486 -20.3952 -25.9316 -25.69 -1.39397 -3.44853 -3.9983 -6.27047 -29.5135 
-29.412 -25.9327 -19.6244 -21.2744 -20.5782 4.97268 -0.0542632 -1.07463 -0.862821 
-17.7039 -13.1218 -1.16229 -1.13729 -20.9021 -12.0417 2.9716 4.5188 3.76518 
-19.0092 -14.6275 -0.767033 -16.1521 -10.9933 -3.6588 -12.518 -26.0236 -2.19705 
-3.07295 -25.4603 -0.713425 -28.9364 -16.0352 -9.77349 -5.99171 -32.429 -4.5087 
-5.7943 -4.47593 -8.39254 4.5208 -9.19915 4.61624 4.81484 -7.31096 -12.6377 
-1.18808 -12.388 -12.8721 -26.4931 3.76356 3.38275 6.0122 1.8757 4.15306 
4.1673 4.5828 4.3082 -0.152473 -3.20644 -6.5436 -3.02448 -0.811844 0.182419 
-0.920609 -2.70456 5.53055 -3.69358 3.0649 2.17287 -11.2465 1.97869 1.11267 
-3.08673 2.29148 3.08602 -24.0243 1.16376 -2.57712 -0.197542 -18.7844 -17.4133 
5.63054 -0.0932291 2.70331 2.16312 -1.20911 5.41288 5.46337 5.83037 2.57344 
-4.74373 -4.31252 -3.57928 -4.7656 -2.97843 -2.24696 -15.3084 -2.75748 -2.26971 
5.29408 -2.76543 0.387917 0.149361 0.0963825 0.610722 0.682488 0.406705 -5.88122 
-8.61906 -9.32287 -8.02085 -0.158593 -7.37232 -0.223154 -0.930321 -2.38722 -0.993787 
-0.597101 -26.3731 -1.18847 -0.883306 -1.00985 -1.19672 0.0277805 -0.988813 -0.906287 
-1.80698 -0.19279 -10.7638 -12.094 -13.132 -8.8122 -10.3831 -12.1892 -13.5656 
-13.6949 -10.5369 3.36331 2.5274 -6.49261 2.59654 3.43728 1.95436 -0.155007 
-2.0547 0.597614 1.28908 0.326311 -0.275819 1.35928 -23.2177 5.99059 -0.311974 
-0.305555 -12.3544 -20.6613 -11.2158 -0.0636807 -11.5909 -2.73944 -1.29039 5.72068 
-4.12543 -0.774154 0.49429 -1.12759 0.0722708 0.593385 5.15972 -0.474884 -6.60251 
-5.29626 -0.0912736 -0.198201 -0.10107 -0.908518 -1.48636 -1.92132 -0.0268983 -0.140454 
-0.186809 1.49575 2.14378 0.763532 1.5378 -3.93024 -4.91075 -19.8562 -0.299999 
-3.79294 -0.0140898 -1.48452 -25.8068 -3.74814 -15.1087 -8.25411 -8.61003 -7.86056 
-12.7545 -12.9874 -10.2365 -8.90041 5.28356 -21.688 -6.46958 -5.82533 -6.4566 
-6.26935 -7.73347 -5.35499 -8.28639 -20.9652 -25.5804 -1.90781 -3.44867 -25.9584 
1.90356 -5.57055 2.0679 2.29939 2.75035 -32.1585 -1.67131 -34.2107 -33.4348 
-26.6061 -0.776817 -0.846957 -31.012 5.65407 5.68943 5.45922 5.49459 0.0766396 
0.28653 -20.8274 -28.7032 -1.04109 -1.24711 -23.9325 -0.190392 0.551329 -30.102 
2.1796 -5.52491 -3.85337 -4.57378 -3.67444 -2.07435 -5.08858 -31.0795 -31.6846 
-29.501 -1.31876 -1.23716 -6.89139 -33.7152 -7.07856 -9.3122 -30.6068 -8.73738 
-5.66003 -6.06949 -9.11685 -7.33504 -7.65497 -6.60424 -6.39331 -1.09238 -2.71641 
-3.71503 -5.63123 -4.15748 -0.924163 -1.37601 0.510151 -2.58271 -0.525369 0.186982 
-1.22296 -1.47335 -2.46168 -3.68822 -4.10423 -6.48429 -1.15063 -2.8243 -2.13537 
-8.7769 -8.23349 -10.7836 -11.5794 -9.22086 -32.2758 -32.1051 -29.4001 -14.3628 
-10.5372 -0.189961 -22.6754 -3.65445 -3.06886 -2.81158 -1.61376 -1.79475 -3.31584 
-4.86657 -2.82687 -3.36499 2.38232 0.0333197 -3.80164 -2.10512 0.0980479 0.129581 
0.0506502 0.144261 0.0653305 3.15251 3.23584 3.33357 2.83027 3.01094 -19.0124 
2.83478 0.0744844 -0.485809 0.308378 -0.210806 -0.312626 -0.233454 -0.26039 -6.31338 
-2.72018 -3.08601 -4.04036 -2.99746 -5.81666 -5.93748 -4.1317 5.21138 -7.54525 
-4.14703 5.50753 -22.0427 -24.2335 -1.15646 -19.5737 -7.62245 5.06073 5.25876 
-20.1102 -4.01604 -10.0594 -10.2933 -3.19651 -3.18233 -9.33453 1.21955 -33.5225 
-24.7697 -28.9844 -28.028 -26.5336 1.91532 -13.0131 4.08177 3.68426 3.58861 
3.79432 -4.05091 3.62813 -2.16098 -4.33308 -7.88184 -1.82289 -4.34787 -7.38519 
1.19929 0.420024 -2.51368 3.2122 3.16788 -0.00978354 1.86147 1.63459 2.16939 
2.2623 2.31062 -1.69182 -2.06534 -1.83513 0.0754712 -7.89045 -7.20226 -7.37015 
-7.63956 -6.51167 -6.75607 -4.33118 -5.85628 -5.23098 -7.74571 -7.7079 -4.54718 
-1.25232 -3.61962 -3.36893 -7.67542 -2.17715 -7.63762 -0.495174 -0.539058 -2.6153 
-1.02378 -0.544513 -0.0526872 -3.30981 -0.172054 -0.233478 -0.0947043 -1.60031 -0.890434 
-0.447702 -0.722403 -42.3449 -0.680643 -6.87914 -1.07152 -0.107677 5.55779 5.61213 
-1.5107 -2.14638 0.234102 5.88679 -5.05998 -5.89514 -9.21014 -11.156 -10.1725 
-2.65115 -10.662 -16.2289 -18.3228 5.99251 -2.62385 5.83392 -1.28952 -11.103 
0.0114634 0.1859 -0.606857 3.61086 3.50079 3.20091 -17.3506 -0.904488 1.48007 
0.330274 -4.24544 -0.804032 0.361127 1.1586 1.80536 -18.2996 -0.266998 0.811848 
-13.8874 -3.30935 -0.753113 -1.53888 -22.0421 -19.7148 0.190183 -0.0349965 -5.38216 
-7.73264 3.66389 -1.1211 -0.326916 0.0878073 -0.485968 -0.219718 -0.220897 -0.341167 
-0.75423 -0.277849 -0.771648 -0.481263 -7.85716 -4.26977 -7.57912 -7.42436 -8.2739 
0.600811 3.01422 -0.887006 0.836421 4.51961 0.412359 -3.2172 -20.3175 -17.5183 
-12.6246 -16.4809 -11.8239 -14.2725 -1.08746 -19.8522 0.026417 -24.347 -0.295736 
-0.54329 -0.263248 -6.25527 -5.49699 -5.72396 -7.72721 -6.00045 -6.04305 -21.9013 
-2.29618 -3.31684 -3.24417 -1.27449 -1.25004 -4.31552 -2.16727 -3.67096 2.50079 
-0.0508856 -0.0656488 -0.106751 5.92734 2.61594 1.23734 2.44206 -18.3368 -18.4741 
-17.8648 -10.5722 -11.4409 -34.7891 -6.18676 -6.69715 -37.9147 -2.29467 3.33431 
3.66562 3.01929 3.53375 3.07226 -21.5199 -22.5111 -16.7101 -17.0932 -22.1798 
-19.522 -2.46996 -5.07154 0.589093 -0.269185 0.997193 -11.2286 -14.0679 0.690448 
-0.333681 -0.698618 -18.4103 -19.5153 -20.2681 -7.6703 -19.5143 -0.0897144 0.0658624 
0.234662 -1.09188 -0.0655713 -0.112228 -0.662833 -1.48842 -0.0820232 0.0559011 -0.582124 
1.04013 -17.6158 -15.9488 -3.9108 -12.6896 -0.116011 -5.68408 -4.9778 1.98451 
0.860371 1.12625 -15.3699 -23.0624 -1.63592 5.69558 -1.53863 -0.19114 5.33075 
-0.17844 -10.3139 -7.76249 -10.6225 -7.45999 -8.87411 -7.6396 -18.2362 -22.438 
-0.0605053 -1.66855 -11.3521 -1.75601 -0.41983 -1.70537 2.51502 -6.04233 2.45779 
2.72289 -5.12027 2.57127 2.39512 2.53183 2.70799 -10.8096 -8.52083 -2.77567 
-18.3692 -0.427233 -3.41999 -3.73452 -4.34641 5.82578 5.8323 -1.54136 -30.7972 
4.62174 -0.971138 -0.279793 -0.238509 5.02895 -29.2424 5.81504 -18.6024 -9.60759 
-10.6267 -8.198 -10.0514 -12.0027 -19.56 -15.2655 0.587056 0.48754 0.254158 
0.0879499 0.437344 -0.369442 -0.27011 -0.248893 5.69087 -15.9191 -1.08407 -3.89187 
-1.16235 -3.48279 -1.61628 -1.03048 -3.83996 -1.20912 -7.7203 3.45347 2.29614 
1.28807 3.05179 2.81144 -3.88856 -0.792479 1.23672 -1.81938 -0.908032 -2.60877 
-0.390994 -7.53588 4.64091 -4.26076 -0.368602 -0.271874 -0.360678 -0.228701 5.73669 
5.78159 5.647 -4.42748 -4.4252 -6.90672 -6.95231 -6.77372 -3.01332 -1.05701 
-1.10922 -1.32666 -29.505 -0.151046 0.401741 -24.7374 3.67015 -23.7836 -15.8468 
-5.40725 -6.62853 -6.5848 -0.168249 -5.6897 0.0365969 -7.86891 -26.7822 -32.2564 
-33.8131 -7.35304 -6.78159 -3.23568 -5.23928 -4.67742 -11.5443 -19.134 -20.4067 
-23.665 3.34727 3.55083 3.7765 -1.51405 -5.96206 -8.04265 -7.86365 -7.81631 
-1.70767 -5.91764 -1.64733 1.99164 -19.395 5.48143 5.67887 5.33547 -5.11391 
-4.42309 -4.9984 -5.08817 -5.29537 -5.5748 -5.39334 0.690475 -7.09896 -6.986 
0.248577 0.0479567 -30.1307 -20.6822 -19.556 -17.9856 0.136859 0.645163 0.972313 
0.464009 2.57303 -7.09547 -1.43555 -29.4766 -21.0402 -7.65716 -7.18225 -10.7231 
-4.51311 -5.33641 -6.23424 5.67902 -7.28694 -22.0693 -20.0777 -16.397 -0.79578 
-0.628827 -1.15303 -7.63843 -0.415253 -30.9458 0.120189 -0.139793 -3.02142 -2.34849 
-3.71562 -0.598861 -4.00759 -5.08378 -4.96005 -31.3347 -1.44213 -3.82938 -2.30113 
-1.1799 -0.191751 -0.463982 -0.113732 -0.134114 -0.544712 -0.597664 -1.51071 -10.9371 
-10.3116 -8.55203 -26.9975 -9.44293 -0.430812 -2.27253 -1.56396 -20.9254 -19.4655 
-2.00038 -4.05882 -16.7742 5.43361 5.39514 5.52438 -24.3106 -17.4669 -7.87227 
-0.690355 -0.908942 -0.846164 -0.823084 -0.758618 -1.33153 5.32346 -0.06624 -4.19265 
-0.470843 -8.92969 -9.66964 -5.99207 -1.3101 -9.75555 -10.4264 -8.83695 -15.7684 
-17.2 -12.6035 -14.0351 -1.57681 -1.39125 -1.54968 -5.39419 -28.5225 -29.0249 
-25.5963 0.459751 5.14546 -26.0988 -0.848633 0.541948 -4.93205 -0.0289407 -4.50974 
0.340345 -4.85708 -1.46987 -4.16404 -0.439863 -1.57906 -13.1827 -1.76376 -1.85603 
-0.199166 -4.15697 5.69026 -29.3652 -25.684 -5.04752 -6.87731 0.810845 0.448139 
-0.484089 5.6919 -0.42901 -1.64383 -25.9166 -7.09355 -0.494651 5.48591 0.322023 
1.81653 0.324866 -1.01503 -7.11611 0.0850691 -0.576311 -1.47236 -6.43222 -31.8464 
5.71125 -7.86309 -15.2386 5.37042 -0.739866 5.91523 0.178515 -2.03253 -15.6525 
0.671146 -13.1485 -0.182735 -10.9691 5.66021 -0.77985 -7.63416 -2.15601 -2.67961 
-0.606088 -0.363081 1.33714 -2.59918 -1.428 0.149509 -0.475987 -0.639555 -1.19481 
-1.15779 -1.43165 -3.05891 0.180756 -12.986 -0.378119 -0.147592 0.118639 -0.00322707 
-2.36834 -1.06938 -1.5998 -0.0580552 0.00305039 -6.49062 -0.179619 -2.1683 4.85985 
4.86653 -2.02333 5.36343 0.303301 0.889851 -0.377727 -30.7264 -0.366301 -0.421747 
-32.6694 -1.17238 -0.702199 -1.20516 -1.29722 1.02777 -2.0256 -0.658284 5.93964 
0.054898 -2.04911 -0.12842 -26.04 -18.3909 -13.0812 0.0239602 -9.545 -5.35913 
-4.13693 -8.99154 -1.10174 -1.02014 -0.284784 -0.262154 0.219671 -0.124662 -1.2105 
-1.4774 -1.43376 -0.0615884 -4.21519 -4.17315 -5.0029 0.00235608 -7.39957 -7.42212 
-7.50937 -2.22928 -1.96879 -2.0375 -15.6374 -2.25506 -5.48293 -2.26219 -3.8969 
-3.59865 -3.14911 -2.63687 -3.08641 -0.904006 -1.24462 4.74304 4.26898 -0.200979 
-15.6921 -14.2954 -23.332 -18.6771 -24.7588 -18.7994 0.522651 0.643791 0.205837 
0.440007 -0.60153 -2.5843 -4.89503 -8.37411 -0.610034 5.55906 1.84228 -26.4755 
0.0015142 -28.4185 -0.387843 -1.19776 -1.83649 -2.84029 -1.29099 -2.03096 -2.05468 
-1.72901 -7.93409 -6.18575 -7.3393 -5.52223 -6.10016 -3.91364 0.201543 0.126283 
0.203993 -9.07582 -5.05472 -4.30312 0.450474 -0.132878 -0.992041 -0.816804 -6.50512 
-6.51209 -0.303907 -0.638016 -0.148788 -0.0701556 -0.110966 -0.144328 -0.131809 5.72574 
-4.46529 -7.62954 0.321015 -11.2153 -12.1993 -13.6762 -14.6602 1.22025 0.609895 
-11.5802 -11.3834 0.22638 0.157897 0.180929 -12.7145 1.25984 0.786558 -0.895048 
5.68727 -1.85236 -2.23453 -0.255685 -0.0695821 0.500309 0.57901 0.77338 -15.9134 
1.58847 1.07893 0.930743 0.295142 -13.4094 0.84395 1.01044 -0.321168 -1.43574 
-26.9333 5.67016 -8.49827 -22.0235 -0.976062 -1.47256 5.48533 -7.67556 -0.0296533 
-0.799605 0.790837 -0.426335 0.538336 -1.34722 0.153367 -0.180743 0.8902 0.139423 
0.116299 -3.32097 -2.14979 -6.72999 -7.01752 -35.5503 -7.88241 0.0682036 -33.4871 
0.0335398 -11.4829 -11.0999 -1.26502 -1.57991 -1.07726 -1.03566 5.45215 -23.2957 
5.26394 5.02194 3.56014 -0.900719 -0.754848 1.09087 0.109039 5.64393 0.00333993 
1.17233 -2.94557 0.96747 0.542265 0.126186 -0.0339723 -2.95228 -3.77482 -1.5363 
-10.7591 -10.376 -2.91072 -2.91424 5.56256 -1.21172 5.51076 -1.24173 5.70205 
-5.1386 2.09652 0.0785594 0.241408 0.506756 0.281227 0.0158787 -17.7836 5.5704 
1.96365 5.52996 5.7517 -3.51277 -2.45792 -0.443599 -2.54766 -2.95236 -1.47402 
-3.14026 -1.03423 -2.87656 0.00392871 -0.189477 -0.399268 -0.723198 -0.513407 -0.0564819 
-0.19954 -21.5612 -0.580779 -0.183507 -2.31928 -2.34505 -6.45863 -4.8315 -5.27285 
-6.48724 -2.27744 -1.20297 1.29024 -0.319884 1.16097 1.6216 1.56724 0.343711 
0.409331 1.09567 0.727419 0.793038 
METADATA
INFORMATION 0

STRESSTENSOR_ZZ 1 15232 double
-47.5431 -56.6731 -44.7884 -46.9156 -56.8446 -57.024 -63.5657 -46.4323 -65.8221 
-52.4367 -71.1063 -57.9432 -58.4392 -58.1023 -79.4612 -49.396 -59.3725 -70.0847 
-56.7691 -46.0919 -84.5679 -55.06 -51.3469 -47.6657 -45.8046 -53.3574 -55.7775 
-55.2491 -46.0802 -48.7771 -45.9438 -55.1759 -54.2496 -56.9294 -46.4412 -58.6154 
-46.6028 -66.7382 -46.4058 -53.9129 -53.9708 -82.4415 -49.3357 -51.6013 -46.3347 
-54.8571 -48.0633 -84.3978 -46.1791 -52.7467 -53.8037 -89.3197 -55.0198 -54.9324 
-75.2126 -59.0947 -47.477 -77.0281 -55.1099 -46.3227 -52.6927 -52.1878 -45.5147 
-51.2583 -77.3847 -56.1237 -46.3146 -69.4804 -59.988 -58.8932 -54.0988 -74.2349 
-54.0427 -46.7799 -81.8945 -50.0842 -43.4924 -50.962 -66.9611 -61.9607 -88.3374 
-46.9618 -46.7289 -58.9321 -46.2374 -57.5878 -53.3252 -52.5659 -51.2278 -47.7312 
-69.0785 -45.9126 -63.2757 -52.4616 -66.0001 -54.7323 -56.3842 -58.5378 -50.6145 
-51.4844 -47.6066 -55.4758 -88.968 -85.6172 -71.4792 -93.8234 -48.0245 -47.3936 
-57.1894 -47.9873 -49.7722 -49.59 -53.8554 -46.0839 -49.7964 -50.541 -46.1651 
-58.2776 -56.4627 -55.7184 -46.4379 -51.6971 -46.2312 -57.3567 -53.0859 -49.8798 
-50.6055 -46.9815 -73.428 -46.7058 -53.9955 -51.938 -64.2655 -47.0432 -54.8936 
-46.1327 -49.2374 -58.379 -47.3772 -46.3338 -59.0396 -44.526 -55.6298 -52.8087 
-64.9588 -48.0426 -44.8412 -47.2383 -78.0481 -54.5024 -56.5171 -58.0422 -45.948 
-46.3564 -51.1139 -49.8965 -46.1916 -65.3948 -50.1775 -57.0535 -50.597 -48.6896 
-46.7594 -46.2207 -55.9172 -46.0104 -48.6528 -47.1008 -55.1404 -55.6469 -47.225 
-47.935 -47.1768 -55.7998 -46.1291 -46.0074 -56.1397 -65.4173 -48.1946 -55.4054 
-54.9306 -46.1093 -56.2551 -46.6921 -55.3332 -57.3138 -54.7337 -58.6216 -55.4629 
-57.1154 -51.3667 -56.2061 -51.52 -68.8291 -53.2214 -48.5794 -58.756 -57.5777 
-43.9392 -51.5466 -55.9744 -57.6777 -53.8652 -56.6719 -46.1637 -52.6244 -46.2486 
-52.0815 -55.0625 -52.5489 -68.7441 -57.2725 -44.3802 -47.6348 -53.6606 -55.7937 
-61.8242 -48.445 -58.2032 -52.6842 -72.8874 -57.8717 -59.373 -75.4163 -59.6819 
-54.5377 -48.5454 -52.9471 -46.6457 -45.861 -47.5483 -57.7477 -46.1846 -52.0183 
-59.3367 -49.2377 -61.3463 -46.6146 -61.485 -65.0943 -48.0575 -56.0084 -102.298 
-56.4027 -54.7092 -58.8219 -47.6133 -46.2687 -58.9571 -57.0149 -52.1834 -54.3923 
-45.6641 -47.8601 -52.8844 -68.2379 -48.7528 -46.8186 -53.8156 -47.8412 -45.9281 
-68.8642 -83.9502 -68.3068 -46.1182 -46.2309 -45.8992 -56.6172 -66.0245 -58.5804 
-60.6835 -48.4886 -97.9358 -57.5312 -46.1829 -45.8455 -58.6364 -54.3517 -58.0387 
-55.5876 -50.873 -50.2247 -51.061 -46.3367 -48.7383 -70.5933 -63.4589 -69.1749 
-46.1991 -55.3528 -64.5747 -49.1845 -53.9563 -62.2443 -46.619 -46.6264 -47.7845 
-90.502 -80.87 -58.1166 -57.3084 -56.3364 -53.9549 -48.9113 -66.8507 -46.6704 
-48.7663 -46.1092 -63.5894 -45.9825 -54.5396 -46.0816 -48.4876 -79.7241 -62.2248 
-86.0745 -57.4602 -50.5449 -56.2966 -52.4696 -50.1214 -48.8156 -45.6243 -45.4411 
-46.0335 -50.3502 -46.7682 -46.9513 -53.382 -47.1821 -54.1541 -46.7127 -49.3538 
-48.7395 -50.561 -47.3469 -46.0235 -52.3208 -48.4726 -50.9339 -57.0299 -46.2067 
-46.9614 -46.2459 -45.8707 -51.8776 -55.3514 -47.4045 -56.0113 -46.9972 -50.4883 
-45.8654 -50.6353 -46.6478 -52.522 -54.9931 -58.6772 -50.2123 -46.9426 -46.9014 
-49.4388 -45.9218 -47.9716 -46.5073 -45.9701 -46.6367 -46.073 -46.0346 -77.349 
-73.4817 -85.9055 -68.3153 -58.1366 -46.3748 -55.7004 -65.0934 -46.8515 -73.6917 
-46.9007 -47.4585 -77.1384 -83.5354 -46.1815 -46.1936 -46.5082 -47.0068 -54.0594 
-56.1522 -57.0144 -55.9372 -50.6907 -47.7522 -51.624 -58.8462 -58.362 -64.733 
-92.4561 -46.2943 -45.909 -50.723 -79.9582 -46.7411 -55.5769 -54.5469 -45.947 
-46.6983 -47.2179 -49.7937 -45.4496 -47.556 -57.3712 -65.2684 -55.5654 -48.7394 
-56.1144 -70.9574 -55.737 -56.0463 -54.8439 -51.5573 -57.9943 -54.9958 -50.8679 
-57.9157 -57.6328 -54.6214 -46.3365 -46.3508 -73.4323 -49.5278 -46.8299 -86.8674 
-47.7662 -50.0755 -55.7455 -54.9167 -55.3823 -54.8315 -55.0272 -51.7992 -56.6547 
-88.0823 -58.3259 -46.2168 -58.4189 -57.5105 -45.6331 -48.5836 -61.2864 -77.5203 
-60.979 -64.4911 -55.1227 -54.5787 -45.7336 -55.8163 -57.7965 -57.6964 -58.9722 
-57.1768 -57.9669 -58.4243 -45.771 -46.5208 -48.7845 -46.633 -88.254 -59.1425 
-84.3923 -48.1602 -79.8283 -49.0906 -68.531 -51.1253 -54.1784 -45.7009 -51.4721 
-56.9375 -48.2281 -56.4899 -58.3808 -56.0289 -47.8187 -51.1903 -56.7902 -46.3169 
-71.5202 -58.7974 -48.5294 -50.6277 -51.8517 -54.0888 -71.2317 -88.7046 -52.8262 
-56.1541 -45.9975 -50.4619 -54.0566 -56.8418 -55.4383 -54.7224 -46.2647 -47.8981 
-51.657 -47.8868 -49.2115 -47.57 -53.9064 -44.8012 -56.7967 -52.1926 -57.6156 
-75.7736 -46.1977 -56.5089 -56.7033 -54.5719 -78.9887 -66.3374 -67.1592 -51.84 
-55.4489 -55.8185 -55.4672 -65.9182 -74.7638 -81.8718 -71.1825 -52.8399 -68.0424 
-58.7541 -57.327 -58.4191 -46.2036 -46.0553 -67.9186 -46.0384 -57.4253 -58.3658 
-57.764 -56.419 -54.9483 -66.7834 -46.6254 -46.5344 -51.4384 -52.6404 -45.9205 
-52.6113 -46.032 -52.7272 -47.4431 -45.9432 -54.3216 -50.6454 -55.8494 -72.1072 
-51.8617 -53.0844 -46.5854 -46.1571 -47.7401 -53.785 -46.3503 -50.442 -53.5753 
-51.0521 -58.535 -58.0152 -56.4009 -46.0668 -48.3556 -45.9411 -47.3173 -46.2333 
-46.2351 -54.7926 -51.7397 -54.0632 -80.402 -46.2581 -46.0717 -55.3638 -54.2417 
-53.5368 -52.4041 -47.3634 -84.2044 -51.2555 -45.9775 -46.191 -46.4573 -46.5314 
-68.5534 -53.6143 -54.8459 -54.1413 -47.4612 -46.4727 -47.6486 -46.1741 -47.2646 
-59.9838 -47.7726 -54.9807 -46.1753 -48.7062 -48.4888 -70.6197 -48.4924 -44.83 
-56.4952 -50.6893 -57.3029 -47.1116 -48.9834 -46.7656 -58.0703 -57.1341 -58.3429 
-46.8962 -52.4571 -46.829 -59.7614 -51.4214 -46.211 -50.3505 -49.6361 -56.9789 
-67.5008 -67.6205 -48.6275 -47.6935 -56.99 -54.0663 -46.2207 -72.6368 -51.2126 
-60.8359 -64.803 -54.5287 -79.2736 -56.8282 -54.3182 -56.2212 -56.006 -46.372 
-47.1078 -47.0572 -47.7139 -48.4541 -46.4575 -52.8901 -77.2912 -46.8884 -55.9067 
-56.5621 -53.1342 -50.6774 -47.3732 -45.8456 -46.3216 -55.4336 -48.5743 -46.4465 
-54.3572 -56.7984 -60.654 -50.8391 -51.4118 -46.4856 -57.1496 -55.916 -46.1031 
-51.4032 -54.9334 -53.4069 -49.8555 -50.6893 -46.1054 -47.2831 -45.8702 -56.5347 
-55.7089 -46.1266 -46.1371 -45.8398 -46.5616 -46.6249 -61.0975 -66.0983 -47.0179 
-69.831 -47.9697 -48.7412 -49.6608 -57.2793 -52.1706 -57.5744 -59.5747 -55.4972 
-55.5089 -54.4341 -56.273 -50.2003 -57.849 -46.2837 -51.3616 -53.549 -43.3366 
-52.8216 -49.8052 -46.0841 -46.5456 -50.1503 -46.1482 -47.159 -55.1868 -52.2773 
-89.9002 -68.0553 -64.7038 -60.1885 -64.1252 -46.3915 -48.4129 -46.6975 -57.9654 
-52.2029 -55.4285 -68.5443 -46.3975 -46.0585 -46.6406 -58.5386 -54.8412 -98.4142 
-56.7386 -53.0713 -47.3608 -46.4373 -53.3603 -46.6802 -51.9904 -46.4633 -55.6448 
-45.607 -45.9575 -46.5305 -46.579 -56.2469 -56.2554 -50.9383 -54.8198 -57.0668 
-54.9969 -47.0408 -46.3755 -62.6184 -64.7639 -52.1965 -51.0638 -46.082 -46.0669 
-97.5779 -53.8813 -57.7904 -62.536 -54.0776 -45.8188 -51.9899 -53.7699 -55.8632 
-51.588 -55.2754 -52.5017 -48.6192 -47.9857 -53.3391 -56.0167 -56.1174 -84.5746 
-73.1904 -55.4124 -89.7835 -68.8409 -50.0679 -48.881 -46.0839 -78.1629 -59.8916 
-47.4001 -51.2759 -49.4488 -52.3773 -48.8674 -47.1481 -46.2224 -46.0399 -54.8091 
-53.8073 -49.5281 -49.5092 -46.2363 -46.6723 -46.5788 -46.002 -53.337 -48.1179 
-51.034 -49.6314 -56.4575 -46.2653 -62.4866 -54.1618 -58.9762 -61.1302 -85.0809 
-85.6771 -75.1262 -76.6409 -52.5901 -61.5207 -56.0285 -64.2344 -46.3268 -52.9826 
-56.9425 -54.6176 -45.7033 -45.7875 -45.9665 -47.7303 -46.1526 -45.8337 -46.3105 
-55.142 -48.1076 -46.1402 -57.0388 -46.1251 -49.6236 -60.7407 -90.4143 -56.059 
-55.1526 -45.7003 -52.7488 -46.25 -56.9324 -46.5319 -48.2029 -46.3114 -46.0957 
-53.1439 -54.6476 -51.7559 -51.6102 -51.0675 -54.4094 -68.066 -55.6393 -52.8679 
-67.8077 -48.7486 -46.0961 -49.3079 -57.101 -66.0499 -83.4475 -47.2563 -47.8162 
-72.1582 -53.9088 -55.7037 -45.1896 -48.3401 -50.7519 -54.9095 -64.2295 -52.1341 
-46.3168 -74.4879 -47.896 -63.5424 -56.3072 -53.3926 -57.9454 -54.6157 -71.2765 
-80.3511 -44.6838 -46.3337 -48.9636 -55.3977 -56.8649 -75.7033 -55.2815 -54.7799 
-46.056 -54.9607 -60.5783 -70.8652 -107.779 -79.5174 -56.8258 -83.3165 -60.5391 
-67.2775 -65.2631 -57.1073 -56.5635 -55.007 -45.6727 -50.3675 -53.479 -56.985 
-55.6962 -55.9233 -47.16 -46.1333 -46.4695 -45.8637 -53.7314 -59.0101 -63.8659 
-63.3508 -55.1708 -45.9488 -45.7724 -78.8367 -57.1928 -53.9158 -62.8839 -71.8979 
-61.3536 -46.7314 -55.303 -58.6264 -91.5879 -51.9641 -105.29 -103.059 -65.398 
-74.1116 -56.9226 -46.7099 -66.8087 -74.291 -57.0736 -52.4013 -46.0548 -51.5396 
-46.0861 -46.6347 -48.259 -49.2576 -50.717 -46.2747 -46.2675 -51.1401 -47.4707 
-48.7428 -47.853 -57.9215 -45.6559 -46.2768 -89.3709 -46.0386 -48.27 -48.6779 
-47.4572 -46.3027 -48.0975 -51.255 -46.3845 -56.9001 -55.1577 -49.5093 -46.1324 
-46.4715 -46.3723 -57.1331 -48.2954 -51.2993 -45.9172 -47.5849 -74.1341 -45.9737 
-48.3895 -46.2272 -46.2237 -55.9867 -54.8688 -52.9902 -61.5638 -56.4935 -49.8013 
-54.0403 -51.8018 -49.0533 -51.4741 -52.4996 -85.4953 -69.3475 -56.5127 -57.8251 
-69.7113 -46.0821 -46.2663 -46.2302 -47.5822 -46.6184 -49.2846 -47.9652 -46.4667 
-46.4524 -46.148 -46.5216 -46.3356 -55.6127 -49.381 -73.2353 -56.342 -52.662 
-54.1555 -47.4693 -86.1255 -81.092 -46.0828 -45.8941 -51.6991 -47.035 -57.2283 
-52.0184 -47.8698 -59.3518 -52.6006 -53.5206 -49.4856 -48.74 -57.1858 -64.2882 
-58.5269 -46.2646 -48.7503 -46.8137 -47.186 -61.1027 -57.5606 -55.5679 -46.2407 
-45.3244 -45.9768 -48.7569 -49.2556 -46.283 -45.5595 -46.2659 -54.6026 -51.2281 
-45.5907 -49.9648 -57.1282 -64.0888 -70.9872 -59.3173 -45.8404 -55.8766 -48.425 
-53.0236 -60.4241 -49.0835 -67.746 -55.1769 -55.8045 -90.9417 -75.7373 -92.3387 
-99.1608 -55.0764 -59.8871 -54.2063 -57.7626 -46.5188 -46.2379 -57.4136 -56.9351 
-50.8372 -55.2431 -46.1842 -72.1126 -95.1929 -66.6977 -63.7995 -50.2311 -49.8187 
-46.2079 -47.2225 -46.4237 -50.307 -62.3565 -81.7762 -60.1469 -47.2279 -65.8625 
-73.2644 -54.5689 -53.2407 -50.9695 -55.9142 -46.3105 -57.5254 -46.5957 -55.0241 
-57.8029 -47.6081 -46.1167 -64.7615 -47.1006 -61.0546 -47.2718 -54.6029 -53.9314 
-54.5274 -56.532 -75.2266 -96.1222 -56.9864 -58.9353 -57.173 -44.5133 -57.9782 
-50.8909 -64.7606 -57.797 -52.807 -46.8704 -88.5756 -46.7911 -48.8246 -48.374 
-87.0981 -51.2524 -53.2305 -46.0738 -55.7538 -54.5069 -54.5307 -73.3678 -60.0531 
-54.8465 -55.8649 -55.9049 -54.8624 -55.8152 -59.1293 -79.6858 -60.2031 -71.274 
-70.7192 -53.3837 -50.57 -50.6523 -53.9567 -55.4297 -55.7428 -57.768 -56.3406 
-57.4445 -60.4525 -95.4691 -50.6429 -54.4176 -54.9994 -57.1266 -55.0202 -50.2062 
-55.4413 -52.6933 -54.8025 -46.4265 -45.7679 -47.0225 -52.5835 -46.9201 -46.3958 
-45.9226 -48.9977 -84.6887 -45.7881 -45.9405 -47.7917 -47.514 -51.0058 -46.149 
-58.3509 -55.0459 -56.8543 -52.4295 -55.2184 -48.1707 -46.595 -46.3717 -51.5296 
-49.9393 -46.6431 -45.4341 -45.838 -46.5327 -46.4307 -47.1359 -45.9701 -56.8834 
-47.7458 -61.259 -52.2089 -47.2547 -55.8005 -70.6767 -71.5961 -53.0617 -52.2655 
-48.0777 -48.134 -46.5619 -51.5855 -51.8703 -50.8867 -63.6344 -52.25 -52.0855 
-51.3533 -55.2514 -57.2394 -72.3782 -92.2439 -68.2393 -81.2905 -63.6429 -68.436 
-70.7224 -57.4976 -54.0155 -57.6299 -57.9984 -48.4138 -58.4529 -59.5436 -57.4776 
-96.8716 -72.838 -85.4756 -56.7947 -45.8858 -46.4497 -46.5198 -75.8889 -52.5315 
-59.8101 -53.9476 -52.7773 -75.4699 -53.8421 -57.3216 -58.7837 -65.4273 -62.9346 
-84.1894 -55.9309 -68.1003 -84.718 -77.9915 -86.6579 -57.7337 -51.811 -55.6467 
-45.7076 -46.492 -47.9837 -46.6335 -45.6648 -46.1718 -49.8616 -46.6738 -57.597 
-58.0064 -58.6853 -58.0966 -48.102 -57.002 -48.2159 -54.7426 -46.3817 -45.8977 
-46.2175 -56.6161 -54.0431 -50.2561 -52.0802 -56.325 -55.2093 -55.7321 -51.5454 
-46.7368 -54.3431 -53.2423 -54.5871 -52.7698 -55.9392 -55.0833 -54.8748 -55.7996 
-50.5412 -48.5435 -52.9792 -47.6873 -45.797 -46.46 -47.7134 -54.0941 -45.753 
-55.228 -82.5677 -72.4238 -72.4446 -79.0541 -48.042 -91.4679 -82.3476 -82.8031 
-46.3549 -53.1773 -52.267 -58.506 -72.5788 -49.9216 -62.1276 -78.4558 -78.7584 
-64.712 -53.4361 -53.0626 -47.0636 -52.9428 -46.9723 -46.9305 -48.3688 -54.9363 
-46.0546 -46.2125 -79.8658 -62.7419 -56.746 -47.6144 -52.0893 -49.9518 -46.187 
-46.1118 -55.7398 -55.1661 -53.7171 -52.1128 -46.273 -46.7321 -45.9091 -48.3171 
-53.5767 -54.0346 -55.1124 -60.6892 -63.6008 -62.4234 -82.5163 -84.6851 -53.517 
-57.0286 -52.1971 -57.2877 -54.2685 -55.295 -45.7688 -46.2522 -55.7855 -51.2651 
-51.2942 -58.1143 -46.9307 -46.8294 -52.9454 -54.653 -50.7445 -46.3013 -45.6843 
-49.7992 -46.275 -47.0124 -50.9201 -46.0856 -46.3259 -55.8648 -57.5994 -54.0403 
-53.2143 -52.1046 -49.458 -53.9153 -80.7679 -46.6805 -46.9554 -55.4032 -47.5252 
-47.2237 -98.9559 -100.463 -54.1514 -49.3329 -47.7175 -46.2337 -46.744 -52.725 
-57.903 -54.0785 -56.1904 -56.4026 -64.7357 -48.6115 -56.5958 -48.9233 -54.3303 
-57.0781 -48.3902 -48.5551 -46.2284 -50.4523 -75.2817 -53.0881 -54.5672 -62.5498 
-46.8588 -47.9453 -76.9096 -56.8912 -48.1179 -46.9533 -46.6395 -55.6171 -54.9648 
-56.7817 -46.5281 -46.6865 -47.1596 -51.6513 -48.4103 -45.9859 -48.661 -47.0119 
-46.8498 -74.8034 -93.4753 -59.9854 -59.0832 -48.2631 -51.7283 -46.1809 -53.7051 
-80.8633 -46.3304 -51.7857 -46.9341 -46.0283 -59.6572 -58.2979 -58.3139 -58.0193 
-74.9667 -46.1938 -47.0235 -51.6679 -46.9371 -48.6286 -54.961 -46.1775 -46.2813 
-46.0965 -48.3008 -45.4786 -57.5442 -61.804 -53.8156 -59.1522 -67.3492 -59.3136 
-52.9696 -90.0825 -63.1711 -58.2107 -57.6911 -58.6822 -49.7564 -56.8825 -50.1756 
-46.1597 -46.3449 -83.3198 -49.7186 -46.5295 -49.6209 -51.0364 -55.8063 -50.66 
-46.4284 -51.8088 -45.958 -52.4414 -46.7308 -46.1699 -47.0058 -46.288 -56.4959 
-56.5681 -51.9164 -52.4144 -47.113 -46.7476 -49.0507 -44.3203 -56.6208 -48.3423 
-47.432 -46.9235 -48.8585 -47.0036 -71.5611 -60.3596 -73.1647 -84.5386 -57.9161 
-51.0704 -58.7349 -61.8016 -79.6481 -70.0406 -57.0043 -47.827 -45.7015 -46.378 
-56.4788 -53.1906 -47.7782 -55.3059 -48.7908 -54.1092 -59.6577 -49.0519 -46.8616 
-45.8699 -47.4573 -45.6374 -61.8151 -56.8687 -48.2305 -49.1883 -46.7187 -54.1913 
-52.9936 -55.2888 -48.9591 -56.1147 -59.53 -51.1853 -46.2119 -52.2411 -50.5103 
-46.2332 -46.9869 -55.0919 -49.5501 -48.3272 -57.3507 -85.9777 -91.9839 -89.834 
-82.5584 -54.2379 -45.5788 -47.3847 -55.1155 -45.7456 -51.729 -47.1431 -72.3889 
-59.8811 -66.3356 -74.4059 -52.4229 -46.1918 -50.496 -53.7306 -53.6725 -55.5744 
-54.8999 -57.7236 -60.6632 -46.7132 -47.9569 -46.4498 -46.2795 -50.016 -49.2198 
-54.688 -46.1194 -51.2847 -52.5367 -57.5755 -46.0731 -55.8365 -54.7077 -69.3621 
-75.774 -51.4829 -53.6017 -89.4994 -51.1651 -99.6007 -88.1852 -90.7538 -57.3205 
-52.2271 -52.4187 -46.4397 -86.6097 -70.7692 -56.4465 -53.0654 -55.5333 -56.2669 
-46.2255 -55.1591 -53.7042 -55.7865 -48.1519 -54.2978 -54.2573 -55.2722 -46.549 
-84.8851 -81.3328 -50.84 -56.061 -45.8633 -47.446 -47.0391 -51.5968 -47.9136 
-55.8919 -58.0641 -58.3775 -54.5252 -58.3081 -57.068 -52.7855 -55.3106 -46.2828 
-46.4422 -46.3834 -47.0703 -56.0893 -53.0266 -53.1979 -48.6301 -56.1752 -56.4021 
-70.4708 -62.7822 -50.5238 -55.5259 -68.7995 -48.079 -76.5371 -46.5331 -46.6953 
-53.6477 -46.2867 -93.2979 -68.4644 -74.3488 -59.2752 -52.3381 -65.3108 -53.8381 
-45.4905 -48.0134 -59.561 -59.145 -46.7981 -52.7905 -47.347 -46.7108 -48.9975 
-46.2236 -73.4238 -55.215 -47.9272 -88.3046 -61.5947 -72.7588 -59.997 -51.9171 
-49.1924 -48.1661 -91.7353 -57.9135 -58.3997 -75.0711 -57.7754 -56.2591 -57.3737 
-58.5994 -58.6958 -56.985 -57.9521 -83.4233 -54.7067 -46.0204 -50.7959 -49.0879 
-54.5208 -54.0987 -56.1421 -56.6138 -63.5749 -53.6838 -54.0735 -54.8397 -75.995 
-78.3647 -83.5605 -48.3046 -46.944 -46.4384 -57.7073 -56.7705 -57.0839 -57.579 
-55.0859 -52.7074 -54.5529 -55.3865 -55.4085 -55.2975 -74.3993 -52.486 -54.1947 
-72.4604 -68.4158 -61.1557 -51.3231 -52.1669 -71.9407 -46.7301 -46.3926 -48.9806 
-46.4933 -46.1258 -65.9798 -62.0743 -46.2172 -50.0986 -46.4253 -49.5067 -46.1552 
-46.4554 -47.8881 -54.17 -54.3878 -86.9546 -69.3845 -64.3792 -58.8417 -52.8521 
-46.0223 -51.7206 -51.9516 -53.3854 -52.0168 -49.0672 -47.2665 -49.0862 -47.1566 
-56.9506 -55.172 -46.933 -45.8307 -50.5384 -45.7729 -45.3228 -56.2304 -48.0149 
-46.5968 -59.6786 -61.5871 -55.9569 -55.2209 -50.3515 -47.1883 -50.8157 -83.9399 
-82.4774 -56.8647 -64.9515 -70.4705 -56.9593 -75.1773 -76.7248 -68.4517 -50.07 
-53.8759 -61.8613 -55.4861 -63.9922 -52.168 -46.4043 -46.4465 -46.4616 -51.396 
-53.1648 -46.2416 -46.2721 -46.0363 -57.3706 -58.2322 -48.9561 -45.997 -46.2305 
-48.4822 -51.5827 -46.7888 -46.1207 -48.6584 -50.813 -57.2129 -50.3434 -53.481 
-45.8829 -59.232 -46.8698 -55.7087 -45.7643 -62.6039 -58.6045 -56.6558 -46.4321 
-49.4656 -62.1127 -62.3627 -72.4408 -54.9463 -45.8882 -48.2721 -49.0331 -48.308 
-52.0963 -53.3094 -49.7017 -73.824 -82.9061 -52.4587 -61.5689 -56.1719 -63.1596 
-56.5111 -46.1114 -49.8782 -46.3316 -52.0846 -54.1683 -53.2143 -52.292 -50.6831 
-55.8374 -54.6423 -57.0542 -54.263 -63.9905 -81.6065 -82.7526 -50.5012 -50.8306 
-51.8711 -46.3669 -49.7774 -46.0275 -46.174 -50.6536 -58.261 -58.1138 -88.7899 
-87.2026 -85.066 -86.9244 -57.3248 -57.8185 -55.4638 -49.7407 -49.1083 -48.0566 
-53.3416 -51.1178 -47.0395 -49.7067 -48.754 -48.9012 -55.0487 -45.6266 -49.1683 
-46.0773 -89.5536 -60.4609 -52.4291 -51.4892 -45.5949 -46.1966 -55.4598 -49.3841 
-46.5655 -46.9315 -46.5666 -58.6738 -58.7012 -57.6739 -60.4282 -67.0175 -58.0771 
-55.825 -55.7512 -51.4821 -52.9329 -49.2306 -49.9051 -91.7242 -77.7733 -93.0401 
-74.2004 -55.5683 -66.1965 -53.3746 -48.6386 -48.6386 -56.4574 -47.1862 -50.2571 
-46.3018 -46.0342 -57.4005 -53.3246 -56.4112 -55.3411 -76.7362 -53.6521 -50.3411 
-52.594 -46.3385 -46.2788 -47.8205 -46.64 -46.2027 -48.417 -51.4296 -56.5643 
-48.9414 -56.9763 -55.0453 -69.5055 -85.7563 -50.0734 -46.4206 -48.3377 -46.904 
-52.2446 -57.1991 -50.7505 -48.7668 -51.7703 -46.2606 -48.6198 -49.5159 -47.0245 
-46.0508 -47.7873 -48.6478 -47.5233 -54.2272 -46.1681 -45.9726 -46.2272 -62.0527 
-62.0817 -76.9985 -73.2365 -50.9625 -52.1269 -55.0293 -59.6558 -67.2604 -82.5825 
-50.6043 -48.1331 -51.9306 -47.5186 -54.6907 -53.544 -56.2228 -55.1289 -55.1067 
-55.1179 -54.2328 -44.9159 -47.6611 -54.8849 -54.3875 -54.8936 -54.0615 -80.4472 
-91.9561 -93.5433 -57.1898 -45.8639 -46.452 -46.2326 -46.3065 -51.5858 -49.3065 
-51.2214 -56.9141 -56.0889 -57.3177 -46.8135 -47.6434 -46.005 -46.1103 -56.8482 
-56.7007 -87.0987 -71.9758 -46.3098 -46.5289 -47.763 -48.4795 -54.4395 -51.9943 
-46.5427 -52.0205 -46.7088 -46.5971 -47.241 -50.2734 -52.7018 -59.8382 -47.0385 
-47.2493 -54.0908 -48.5075 -50.9437 -52.4787 -49.7513 -51.8237 -46.0021 -53.6947 
-87.5354 -91.406 -88.9304 -49.6575 -58.351 -58.0036 -57.5025 -49.5751 -46.78 
-57.063 -58.3067 -56.1958 -56.843 -54.8955 -46.3763 -51.1325 -53.703 -55.3825 
-46.025 -81.7158 -46.9143 -46.7827 -46.3795 -91.3159 -67.79 -84.0791 -65.0993 
-68.7723 -46.3655 -46.5079 -46.8876 -51.9167 -48.3677 -50.6382 -45.705 -47.5061 
-50.349 -56.2157 -51.3785 -47.1849 -46.0809 -46.9488 -48.1101 -89.1809 -72.0458 
-83.1899 -60.9977 -55.4049 -64.5513 -81.9412 -75.2013 -64.4961 -67.057 -46.5217 
-46.1153 -47.4959 -46.6175 -46.1307 -46.0324 -46.243 -53.9371 -47.0288 -57.1762 
-56.5597 -46.6482 -53.5282 -53.6451 -48.4465 -59.9352 -82.5493 -68.7783 -52.1249 
-55.4978 -56.687 -52.5247 -55.3036 -54.2367 -45.9154 -48.2742 -64.7052 -58.5797 
-56.9199 -57.6679 -55.8686 -57.8911 -46.7122 -53.7453 -60.0509 -45.9681 -87.9248 
-51.4305 -83.9167 -55.3546 -57.6507 -51.9012 -57.4671 -46.5003 -77.1054 -89.7293 
-46.3203 -46.1278 -46.3818 -46.4412 -45.673 -46.2038 -46.1262 -46.006 -58.6528 
-46.1471 -50.6475 -53.0165 -55.2244 -48.7252 -53.6421 -45.8571 -46.1436 -46.9024 
-57.8916 -77.5762 -78.2155 -68.513 -71.0746 -56.0034 -48.7915 -45.7156 -50.4286 
-89.1348 -85.3085 -62.9173 -66.0845 -85.5257 -56.5522 -56.5471 -55.0966 -56.0955 
-47.7317 -47.1794 -49.9911 -56.4563 -54.2444 -52.3678 -57.4488 -57.3481 -57.1571 
-50.5377 -46.1602 -50.9517 -50.8296 -49.8332 -57.9862 -60.1739 -47.8887 -49.0678 
-54.3863 -49.1652 -45.9643 -52.278 -47.7847 -56.582 -47.1191 -50.4269 -48.4215 
-59.2051 -59.6168 -46.7458 -54.2663 -47.4647 -50.6456 -48.5022 -46.0145 -46.456 
-45.8421 -56.5466 -55.9757 -50.9528 -50.9727 -47.1962 -46.8779 -45.886 -44.251 
-46.5986 -46.1617 -101.12 -63.123 -66.6003 -61.9351 -59.3336 -63.5978 -57.2688 
-58.8092 -52.8798 -59.8087 -56.1764 -45.8878 -47.7598 -57.5539 -46.9755 -54.6447 
-55.1372 -78.5788 -69.3053 -86.5149 -72.4253 -88.0679 -72.1097 -57.8542 -65.0438 
-48.3428 -47.773 -57.0785 -49.1536 -47.7301 -52.1667 -52.1301 -54.2641 -50.8604 
-53.8046 -53.1843 -57.132 -55.3508 -54.4083 -56.4346 -59.4127 -55.1573 -45.9987 
-49.2191 -44.2272 -46.3019 -82.6079 -70.1368 -69.2597 -93.4871 -84.6661 -82.7576 
-46.9341 -45.9351 -47.2829 -48.1023 -46.1929 -46.2754 -47.8974 -47.5078 -44.0919 
-73.4559 -65.8219 -62.0299 -55.1498 -58.762 -56.0397 -47.7832 -54.8964 -66.8479 
-46.1288 -56.7868 -47.6459 -51.7405 -46.5034 -54.2185 -66.9866 -68.867 -75.1768 
-63.7647 -45.9498 -47.2704 -45.961 -47.814 -46.6729 -45.7811 -45.5916 -79.542 
-50.6674 -62.1909 -83.1975 -55.2792 -55.5161 -76.854 -72.3158 -73.9749 -74.125 
-46.2944 -45.8371 -46.4667 -47.0209 -79.6185 -46.7902 -48.3432 -54.2839 -56.3812 
-71.731 -81.4082 -85.5055 -54.8476 -47.5432 -47.9348 -46.7064 -46.2128 -62.9973 
-48.3853 -79.5336 -76.1097 -56.9162 -46.8896 -45.8375 -46.355 -92.0723 -55.1077 
-57.4045 -59.06 -55.5929 -52.8179 -46.1494 -46.1118 -46.3795 -58.5795 -58.1002 
-57.8744 -58.5819 -46.5556 -46.3296 -46.2318 -46.6455 -48.7668 -62.864 -57.463 
-58.7663 -48.3048 -56.7398 -56.14 -58.4438 -52.6633 -62.2341 -52.5646 -65.0921 
-46.9587 -47.2018 -50.3732 -48.2165 -61.12 -46.2415 -46.3894 -54.3426 -50.3648 
-49.2361 -46.5375 -47.5965 -46.435 -49.5335 -57.5397 -57.394 -57.4083 -57.6663 
-68.5224 -50.4381 -45.8519 -55.4193 -57.38 -56.9075 -47.7229 -103.243 -46.3481 
-97.6421 -66.6882 -68.6792 -83.604 -56.8822 -56.8942 -56.6238 -55.6329 -49.7314 
-76.5545 -57.5934 -60.0306 -82.4253 -49.3298 -45.8997 -55.9818 -91.4085 -60.0643 
-91.5287 -48.6403 -50.1197 -53.8363 -57.5648 -53.082 -65.2863 -46.2334 -47.8567 
-51.7547 -50.5991 -50.7627 -55.1272 -56.168 -53.2332 -55.0892 -55.2252 -59.2153 
-57.1612 -58.0366 -52.1495 -73.2591 -55.3245 -57.5191 -55.8997 -51.9492 -51.0325 
-51.2686 -46.2523 -59.6649 -58.5446 -56.8975 -48.5951 -49.5242 -46.7585 -47.9722 
-45.9082 -45.7899 -49.3189 -46.244 -46.8205 -46.1263 -50.3791 -50.6273 -46.0722 
-47.565 -59.9863 -61.2764 -46.6731 -47.2139 -46.5412 -68.7145 -47.836 -62.8942 
-83.9248 -55.9798 -73.3999 -80.0439 -90.0089 -74.8812 -78.8333 -46.7953 -50.2678 
-46.6046 -46.1787 -47.0978 -46.7305 -55.7056 -49.9729 -50.7008 -52.1958 -46.0344 
-46.4853 -47.0338 -66.5095 -50.1873 -49.563 -57.5706 -51.4419 -54.0255 -53.9212 
-53.4072 -51.284 -55.9628 -46.2176 -48.4682 -46.0199 -47.6224 -75.8594 -46.8418 
-46.16 -47.9214 -53.4266 -53.3435 -54.556 -55.7957 -55.2184 -54.9803 -56.7414 
-56.4607 -55.2002 -53.7438 -54.0293 -53.489 -54.8807 -55.4132 -61.3502 -71.4156 
-50.6819 -57.6381 -66.2733 -87.409 -73.8957 -79.7153 -71.234 -47.1496 -47.2747 
-45.7368 -45.9649 -46.2821 -56.7398 -59.2712 -53.1696 -49.5677 -46.6059 -45.9753 
-46.3506 -46.4834 -46.1642 -54.0073 -52.8181 -55.5543 -53.0792 -54.3848 -52.9463 
-56.4541 -54.1151 -90.6119 -54.1603 -78.8947 -89.5377 -87.4429 -88.229 -75.2113 
-53.9217 -57.0343 -56.6259 -56.1173 -81.0514 -63.1896 -55.5532 -55.2661 -51.6901 
-46.0854 -52.2468 -46.9679 -46.3901 -47.8418 -47.5208 -53.2852 -46.1591 -50.677 
-53.6637 -46.161 -52.5816 -46.2526 -65.4498 -68.2945 -62.1156 -89.8222 -65.5561 
-51.4325 -49.276 -50.7204 -55.1807 -55.1253 -55.4713 -55.4593 -55.4295 -46.2382 
-46.0402 -46.4581 -46.3674 -45.9953 -57.3892 -57.5454 -57.5053 -56.6708 -47.4936 
-56.7686 -44.9923 -46.8157 -50.5785 -46.3532 -52.6052 -54.4838 -49.5324 -54.0869 
-53.3935 -56.2506 -50.1779 -56.6507 -50.6279 -48.2547 -50.0753 -57.5283 -52.6555 
-92.7526 -78.6751 -74.2085 -100.768 -69.0882 -84.4679 -79.509 -71.4677 -47.6361 
-58.3168 -66.9507 -74.5107 -53.9664 -56.754 -53.877 -59.3036 -60.2328 -46.4123 
-46.114 -55.4931 -60.5643 -71.0736 -91.6726 -72.1312 -54.7238 -53.3024 -54.2537 
-58.2624 -54.2331 -53.0788 -54.6302 -47.058 -47.7584 -50.9456 -46.2307 -46.2203 
-51.9721 -52.1662 -52.1195 -75.5654 -49.3869 -56.4859 -57.6579 -54.4988 -54.9817 
-91.3183 -59.7236 -63.9851 -60.87 -51.1954 -56.4236 -57.8322 -54.9783 -54.6997 
-62.3789 -58.0775 -53.3653 -50.0048 -87.8589 -71.2614 -51.9604 -53.2112 -50.3331 
-49.7474 -55.7729 -48.6123 -46.3146 -47.2026 -46.2036 -60.3052 -58.2613 -50.0258 
-58.2472 -54.8796 -54.4443 -48.4092 -53.4042 -54.076 -46.0664 -47.0045 -57.7232 
-50.8047 -83.9507 -82.6563 -68.2256 -49.5592 -46.2635 -46.5914 -47.4253 -46.0492 
-47.2608 -68.6106 -47.358 -46.4598 -45.7653 -45.9807 -55.553 -49.5107 -50.5706 
-81.3211 -50.7108 -46.654 -46.4397 -47.8516 -46.5465 -45.9579 -55.1258 -55.4556 
-55.4104 -55.382 -46.3858 -46.1146 -51.8846 -55.2081 -49.0883 -46.4626 -46.4246 
-46.5299 -47.3958 -47.3237 -46.0027 -45.9251 -48.5037 -49.6436 -51.0753 -49.5109 
-51.4635 -51.4393 -67.2307 -67.5825 -77.9088 -76.7941 -57.7181 -51.0387 -46.6817 
-47.0736 -47.828 -46.4931 -48.0251 -46.4345 -54.4607 -46.6725 -57.2897 -59.3684 
-46.8297 -46.2913 -46.7261 -58.1092 -58.5449 -57.3993 -57.917 -58.3187 -85.6 
-69.1382 -70.5045 -58.1985 -56.172 -54.6316 -54.7634 -57.8168 -57.0539 -57.4123 
-53.8 -49.7933 -46.585 -46.1813 -46.1006 -46.3193 -46.1907 -45.7662 -43.4424 
-43.6741 -76.0631 -100.852 -97.7974 -63.2182 -63.3345 -54.5069 -60.6288 -62.9661 
-53.5891 -55.5197 -52.442 -56.8108 -58.4808 -57.6188 -56.3438 -55.3551 -54.5951 
-84.9664 -86.4935 -89.7099 -91.6558 -63.3583 -83.794 -47.9148 -48.5417 -56.1973 
-62.7692 -53.9431 -54.8084 -54.0691 -55.8878 -85.9956 -69.7764 -97.6428 -57.5989 
-74.2293 -87.5065 -82.9119 -86.6517 -61.7499 -90.2277 -46.2717 -56.4249 -62.4242 
-53.5429 -53.5001 -54.4602 -49.6314 -46.7606 -46.4674 -45.1139 -52.6193 -54.1795 
-46.3905 -46.112 -54.5399 -69.4211 -55.3513 -55.4775 -55.0365 -54.9616 -55.3734 
-46.0974 -45.559 -46.0801 -48.4832 -46.4757 -54.7046 -54.6004 -65.0456 -52.9533 
-47.5659 -53.6453 -58.9821 -58.6298 -58.7103 -49.7147 -46.6373 -93.8228 -89.2922 
-50.7838 -46.0305 -58.3646 -78.7714 -81.1029 -88.4755 -45.8408 -50.5141 -53.6841 
-45.3195 -46.2767 -48.7726 -48.4799 -46.5158 -45.7377 -51.2754 -52.8683 -80.5474 
-63.2539 -48.7094 -56.5075 -53.8421 -46.3334 -46.8362 -51.9967 -46.4724 -46.1685 
-46.6421 -53.6867 -73.7281 -81.8921 -72.7951 -70.4903 -56.2152 -54.0272 -57.1589 
-75.1055 -80.7078 -79.8316 -70.3352 -46.7301 -47.6958 -51.2963 -84.8467 -54.6044 
-57.4131 -46.0141 -57.8439 -58.6606 -57.7408 -58.6203 -58.5426 -58.5956 -58.0125 
-56.6866 -53.727 -90.2109 -91.6314 -83.5079 -54.8881 -51.0334 -56.5996 -77.0422 
-46.2172 -95.6435 -53.8981 -56.4717 -54.9202 -55.4987 -46.4273 -46.9594 -51.5838 
-69.647 -47.8052 -83.8399 -81.8514 -92.5706 -78.3282 -71.4336 -55.1681 -48.5663 
-47.4226 -46.3759 -49.7381 -49.0035 -52.2919 -54.2354 -54.1567 -53.5263 -53.2204 
-56.701 -55.0038 -55.8685 -56.2464 -55.0757 -55.3204 -56.9615 -47.584 -57.4696 
-68.7565 -46.2023 -46.2343 -46.1458 -48.3111 -46.0563 -48.6557 -48.1079 -47.6716 
-47.5129 -47.8286 -52.6088 -56.9048 -55.8547 -57.2402 -94.5829 -93.1763 -87.3078 
-83.1547 -83.5804 -65.3881 -46.3261 -59.4143 -47.4845 -67.1429 -47.5703 -46.8507 
-46.463 -46.442 -47.4262 -46.7696 -55.4557 -48.2916 -61.1256 -87.4464 -65.87 
-46.0278 -85.0347 -79.3369 -46.7076 -47.2459 -46.7089 -46.8528 -53.4114 -61.9156 
-54.9202 -62.2622 -67.6378 -46.7525 -52.6774 -52.5708 -54.9848 -45.7174 -45.9895 
-46.1556 -56.1201 -57.3254 -52.2186 -51.3357 -55.1777 -54.5654 -99.2888 -72.7649 
-86.4618 -71.4334 -46.2571 -52.8557 -51.7054 -50.4236 -47.218 -51.5664 -52.5205 
-59.2991 -57.753 -79.8439 -43.9113 -46 -45.4063 -47.2925 -52.6872 -75.6757 
-87.0652 -47.5657 -51.2761 -47.2574 -48.8968 -52.9965 -46.9897 -48.6189 -47.8938 
-47.4904 -46.5003 -57.0794 -51.9665 -51.1104 -62.3987 -87.0076 -63.3447 -64.3535 
-79.2152 -49.4715 -52.9428 -57.9655 -60.4337 -54.291 -56.5688 -47.3331 -47.2086 
-49.5465 -49.1726 -51.1249 -56.946 -46.1569 -62.0441 -47.7663 -46.577 -45.8431 
-45.9832 -57.1313 -50.9432 -47.3098 -58.3869 -58.7216 -54.4451 -50.0253 -46.0969 
-46.0901 -59.5466 -82.0901 -63.3756 -88.9297 -45.8618 -51.0461 -46.3214 -56.7881 
-59.0259 -56.372 -57.1945 -47.1374 -46.0959 -47.5158 -46.8625 -45.8887 -54.805 
-56.0259 -54.0786 -54.1939 -46.3179 -53.2244 -46.238 -49.9556 -71.1782 -52.66 
-54.3578 -52.9547 -47.6306 -46.1886 -55.3661 -65.5823 -50.9453 -45.9665 -55.4653 
-54.7312 -54.4643 -54.3659 -54.6267 -59.8289 -66.9054 -55.7072 -75.2465 -65.7597 
-45.335 -53.2409 -46.1536 -54.799 -55.4258 -56.5294 -47.701 -47.3687 -47.8195 
-50.4924 -48.7171 -45.8604 -45.88 -45.9776 -49.7719 -46.2185 -46.262 -56.4939 
-56.0276 -72.4403 -89.6931 -73.5762 -54.3586 -80.0548 -68.8954 -53.1526 -46.4204 
-45.83 -56.418 -54.332 -49.376 -49.7396 -56.8938 -95.9715 -85.2522 -47.7208 
-46.868 -49.4173 -45.9855 -52.0153 -55.856 -57.7493 -55.8505 -57.2217 -48.9469 
-53.2444 -56.1319 -56.7061 -56.5566 -48.1744 -53.7626 -51.2477 -50.4685 -46.1407 
-45.8304 -46.3875 -62.1897 -58.9047 -71.8401 -56.6759 -46.6694 -49.2343 -51.9405 
-46.4937 -54.8443 -46.1437 -46.4873 -46.9231 -55.448 -59.0781 -58.3029 -56.9533 
-58.065 -49.3522 -45.7124 -46.7473 -55.1674 -47.2669 -49.8063 -49.3001 -47.6478 
-46.4223 -61.5799 -47.5497 -50.2233 -107.977 -58.9666 -87.4157 -71.2688 -49.7964 
-51.7265 -50.8231 -85.1044 -58.8748 -52.0067 -46.5629 -53.0339 -47.4179 -49.7756 
-54.4698 -54.5554 -46.2328 -46.3679 -46.9367 -53.7496 -54.314 -48.0787 -62.699 
-58.8812 -79.3172 -67.1207 -86.6558 -82.9199 -79.1967 -47.95 -50.5594 -45.9981 
-45.6183 -46.1308 -52.4383 -48.0525 -55.4498 -72.6011 -64.3636 -57.854 -56.9653 
-61.4365 -58.0067 -60.8008 -56.7406 -48.5957 -53.0862 -46.3063 -46.867 -46.9898 
-57.1996 -56.4543 -52.3582 -54.573 -55.8894 -55.918 -52.5304 -51.5757 -50.0176 
-47.0492 -52.0052 -49.3656 -55.7347 -57.8483 -57.262 -52.6812 -58.1371 -58.7972 
-58.7266 -47.2209 -49.6332 -46.1485 -46.9065 -55.3199 -53.1659 -46.3285 -49.7153 
-48.0582 -56.7953 -85.3711 -66.2394 -53.4039 -50.3677 -46.6766 -51.4893 -48.9766 
-46.0805 -57.9084 -58.1627 -57.5168 -59.4136 -84.604 -46.0058 -56.9154 -50.9681 
-46.8119 -45.9941 -50.3285 -53.4969 -50.7963 -56.2403 -94.5696 -72.3011 -55.5336 
-58.4533 -58.1538 -58.2236 -58.2355 -58.1287 -71.9622 -97.1735 -102.08 -53.392 
-52.0736 -68.5029 -53.0862 -62.2473 -46.7931 -48.331 -56.891 -47.6398 -52.0811 
-50.601 -52.0179 -46.1955 -46.9944 -46.6116 -46.9493 -66.2852 -88.7627 -95.5095 
-85.3237 -73.1244 -96.8218 -46.2605 -52.0325 -47.9164 -55.5993 -46.0555 -56.0306 
-69.4144 -61.6277 -63.6605 -86.5115 -71.8164 -62.8151 -52.8598 -51.4374 -61.0425 
-57.2732 -56.3373 -56.1665 -56.7566 -46.2686 -44.7801 -46.057 -98.6471 -97.6136 
-100.524 -78.8118 -80.5652 -71.6641 -47.0829 -52.4474 -47.1722 -47.328 -82.1265 
-76.5674 -73.2872 -54.5707 -57.0345 -66.8267 -61.6005 -55.0719 -53.6872 -56.8688 
-56.6427 -46.3742 -47.3536 -58.997 -58.921 -58.778 -51.6907 -47.712 -52.0019 
-46.1566 -46.1089 -82.4662 -83.7344 -74.8854 -58.7073 -48.5664 -46.6337 -46.3014 
-55.588 -55.6243 -55.9519 -67.6219 -95.0407 -54.713 -68.1709 -53.0016 -57.1452 
-46.5017 -56.4253 -55.5579 -52.9973 -46.6647 -48.9139 -47.72 -52.3999 -49.8207 
-54.7913 -55.658 -63.4608 -57.846 -57.3155 -47.2746 -54.9553 -47.4928 -47.8225 
-54.3409 -55.3925 -53.6805 -51.5299 -52.9995 -50.5267 -52.7746 -48.6898 -46.3355 
-47.5121 -48.7647 -46.5375 -47.8248 -46.6377 -46.8526 -53.833 -52.7267 -49.6258 
-86.998 -54.7199 -53.8336 -54.6354 -49.527 -51.3603 -46.204 -48.7816 -54.814 
-55.2046 -46.0684 -46.429 -54.818 -46.5952 -47.1008 -52.9758 -65.6951 -46.1666 
-46.1488 -46.7414 -46.4907 -46.3751 -56.5381 -47.717 -45.8246 -48.6259 -57.0839 
-46.7743 -47.3651 -55.1489 -52.2675 -52.1535 -55.8033 -51.2591 -46.4033 -46.4277 
-46.9888 -50.9391 -52.5165 -51.18 -56.8241 -47.0984 -46.2796 -52.6011 -55.731 
-47.2169 -47.0681 -50.9379 -57.8963 -58.5352 -56.026 -57.8989 -88.44 -70.0452 
-75.4175 -77.8595 -65.5676 -80.0383 -85.181 -85.4729 -68.5666 -56.6757 -58.5786 
-66.16 -57.3932 -65.5594 -49.1411 -57.1008 -57.4089 -53.8439 -53.3589 -54.8882 
-48.7951 -45.5574 -48.0239 -52.3099 -55.0209 -52.7682 -51.769 -53.2272 -46.2138 
-49.157 -49.6051 -64.3628 -68.6122 -88.4707 -46.1121 -50.262 -48.2235 -51.8449 
-53.9904 -57.0584 -79.0175 -55.6817 -55.0877 -57.1408 -56.3588 -49.1808 -55.9106 
-55.5429 -55.4113 -56.0331 -47.8614 -48.9101 -46.8557 -59.4195 -83.95 -96.4561 
-82.6226 -97.9961 -51.055 -55.7529 -51.6736 -46.6313 -59.3414 -49.9892 -46.9693 
-45.7906 -65.4238 -53.1073 -54.9109 -55.4918 -50.0111 -51.3598 -46.9715 -70.1963 
-55.9229 -60.8708 -62.2048 -52.6671 -76.055 -63.4051 -56.7338 -54.685 -66.3322 
-53.116 -56.5934 -54.6734 -50.6451 -48.7455 -45.0576 -47.5231 -46.1446 -46.0367 
-46.6799 -63.6988 -61.0354 -52.8022 -51.4994 -51.7273 -56.3223 -55.7067 -57.2581 
-56.5117 -66.3274 -71.745 -85.6742 -93.1294 -54.0146 -53.5559 -54.7912 -56.581 
-58.1335 -57.4632 -57.3304 -57.8524 -57.7506 -57.4494 -56.7736 -55.1806 -55.5292 
-46.365 -46.0373 -82.3457 -67.0501 -78.8788 -46.8568 -46.5616 -49.7484 -54.4478 
-60.0883 -51.9669 -46.447 -51.2831 -53.3791 -50.3536 -46.2914 -51.9661 -46.1478 
-46.6704 -54.1756 -88.6662 -55.2474 -46.3967 -51.2559 -55.1625 -52.7051 -48.1253 
-53.5896 -45.8155 -48.0783 -66.3399 -74.6388 -59.8161 -64.7142 -70.4809 -61.7646 
-53.0885 -56.7733 -57.5988 -71.5849 -59.0492 -58.1785 -58.0972 -54.343 -57.1548 
-61.5072 -58.2878 -49.0909 -61.3651 -57.0643 -81.6523 -59.8616 -69.3513 -84.4254 
-73.2197 -54.3537 -82.8651 -48.7207 -46.2576 -51.3655 -49.8532 -54.814 -53.5726 
-54.0206 -55.0137 -67.7727 -56.3584 -58.3086 -57.3924 -55.5412 -56.3719 -55.5394 
-55.9568 -54.6211 -55.1197 -58.2679 -57.9496 -56.2157 -46.3492 -46.9711 -46.3105 
-46.2219 -47.2097 -46.8803 -88.2876 -67.3147 -76.9192 -57.4779 -70.8312 -68.353 
-76.6926 -77.389 -69.6763 -72.9524 -55.7431 -53.7328 -47.8865 -45.7665 -46.8389 
-46.2356 -45.767 -46.4571 -46.4161 -47.0509 -46.373 -47.1637 -47.2873 -50.2535 
-46.6922 -88.7428 -71.1497 -82.1565 -93.5534 -51.6162 -54.915 -45.9955 -54.1168 
-57.4306 -56.4249 -56.8633 -48.3393 -52.3603 -49.6406 -50.2742 -46.2226 -46.2427 
-54.7481 -47.0619 -59.4081 -74.7533 -48.0945 -47.4512 -48.5665 -55.4089 -53.5792 
-56.8799 -56.9325 -49.8221 -52.468 -46.8967 -46.0229 -46.6855 -47.5458 -45.7884 
-46.7548 -47.8776 -55.0131 -49.849 -55.1022 -45.6605 -46.4151 -46.7248 -45.9452 
-46.3498 -51.8088 -45.9922 -45.7853 -53.3365 -49.0905 -46.8252 -50.9075 -53.9389 
-46.6546 -47.1846 -52.9587 -48.1865 -46.0608 -47.9525 -46.142 -54.0793 -50.1977 
-53.8303 -74.4279 -85.1635 -84.9921 -48.5938 -46.6767 -54.6514 -49.2565 -47.0147 
-47.7352 -47.4058 -56.2107 -54.7916 -52.142 -77.4415 -84.0614 -93.6876 -48.4958 
-49.7551 -52.0729 -52.7446 -54.2276 -47.2546 -46.2665 -53.1233 -68.8624 -62.9314 
-48.5935 -50.7033 -50.4432 -49.6111 -49.7774 -56.9222 -56.5727 -46.6515 -46.3171 
-48.1537 -56.8793 -45.7963 -88.0324 -85.0866 -78.9762 -46.963 -46.1109 -51.4384 
-55.4426 -46.8514 -54.9792 -47.2776 -56.3562 -53.1656 -54.2153 -53.3868 -54.9984 
-55.6785 -53.4409 -54.9756 -53.2652 -57.6561 -75.9253 -46.1765 -47.8541 -48.7139 
-46.0833 -46.6874 -46.7551 -48.0436 -46.2291 -53.539 -51.6366 -53.0741 -47.1574 
-88.5246 -75.5591 -89.9181 -46.1039 -46.2127 -57.4374 -46.6589 -50.1071 -50.9977 
-50.3607 -59.617 -70.5633 -49.1983 -69.7843 -60.8174 -56.333 -61.7255 -58.1249 
-62.4775 -47.1674 -48.0039 -51.4062 -52.8769 -54.8136 -47.3086 -51.2566 -48.6103 
-52.0093 -46.7719 -45.8651 -56.4494 -49.9631 -54.9228 -48.2804 -47.233 -48.1362 
-49.1619 -46.4161 -60.1532 -60.6677 -54.1802 -46.0292 -46.4272 -53.946 -50.4776 
-48.1808 -49.4253 -45.9565 -46.2421 -46.6172 -56.4814 -56.714 -53.5033 -58.4645 
-56.2605 -53.485 -49.6635 -56.2273 -51.5552 -53.7787 -56.765 -51.31 -48.6828 
-49.2877 -48.659 -63.608 -66.7479 -65.2488 -54.1134 -48.8624 -51.4215 -53.6348 
-45.9075 -46.258 -57.0022 -58.0535 -58.8441 -56.7581 -84.5342 -49.174 -51.6962 
-52.8542 -46.4768 -49.5014 -45.9981 -50.6392 -55.3847 -55.5704 -52.4019 -54.5433 
-70.4238 -62.2658 -64.2312 -72.3864 -82.1568 -57.089 -47.2847 -50.1694 -46.5779 
-52.1614 -54.8619 -48.2456 -50.4124 -50.21 -57.1211 -57.1734 -57.9682 -53.0078 
-51.6172 -57.0017 -46.8123 -46.2631 -43.9873 -95.6715 -49.7077 -69.8664 -53.7868 
-53.2058 -55.1041 -49.4625 -46.3543 -46.297 -46.514 -46.565 -46.9255 -46.6386 
-46.7918 -45.1789 -44.1954 -44.1838 -52.1927 -52.8566 -53.9327 -53.4677 -67.8294 
-53.5042 -53.4604 -56.131 -55.4153 -57.115 -56.2077 -54.4002 -57.152 -55.3125 
-70.0176 -58.8093 -46.1865 -48.2638 -46.1187 -58.7008 -52.9186 -55.5333 -53.0949 
-87.0851 -91.6873 -83.9398 -77.3123 -80.24 -47.2779 -47.1372 -46.544 -51.1223 
-55.9148 -57.1425 -46.7736 -53.7117 -47.8331 -46.3961 -49.1165 -44.7773 -48.9122 
-44.3849 -45.0133 -49.1134 -53.0388 -51.1079 -53.6396 -55.409 -48.8493 -49.0563 
-55.0129 -48.1847 -51.5674 -56.794 -54.7552 -54.3292 -52.4293 -51.1974 -57.5941 
-58.1799 -56.8973 -56.895 -56.1758 -52.6709 -54.7486 -51.8953 -52.0682 -48.3159 
-46.0797 -51.8854 -68.4999 -50.4771 -54.312 -59.2187 -57.5687 -56.6453 -55.5187 
-58.1915 -54.4246 -46.4004 -53.9808 -55.7142 -55.7095 -48.9302 -54.8124 -54.5074 
-55.5322 -55.888 -48.8255 -47.5862 -48.0865 -47.4259 -51.3781 -57.5605 -51.1324 
-58.1219 -55.3651 -46.0944 -56.6501 -60.6354 -48.9475 -49.5157 -93.1014 -66.2394 
-73.4043 -56.3668 -71.6755 -45.5417 -54.8792 -47.0901 -46.1361 -58.6584 -63.9001 
-69.2795 -57.9377 -46.03 -48.5839 -46.9023 -46.7071 -52.0802 -64.7769 -51.5062 
-59.8701 -53.5932 -57.2629 -56.0975 -57.773 -57.4036 -73.1926 -65.1894 -87.023 
-52.7266 -80.17 -54.6566 -49.8087 -62.0252 -64.0225 -46.9291 -44.5582 -49.8152 
-50.7723 -49.6143 -46.774 -46.2816 -45.8561 -45.2624 -48.4242 -46.7955 -46.1395 
-52.7416 -57.6911 -53.5451 -50.7461 -57.8425 -56.0474 -55.0829 -54.4397 -53.4047 
-53.9468 -54.1031 -59.0912 -59.2423 -49.7875 -49.0756 -46.6739 -56.5744 -46.1956 
-55.3205 -57.7518 -57.6789 -54.9057 -47.5084 -61.9186 -51.8442 -55.1284 -58.5535 
-68.0678 -47.9834 -50.6369 -46.956 -46.0456 -88.599 -88.7529 -93.5302 -89.6299 
-46.2668 -45.7916 -72.9354 -55.9252 -48.995 -60.6178 -57.023 -58.5 -52.6241 
-57.2958 -58.8226 -70.2242 -46.1594 -45.8766 -46.6904 -53.6899 -55.4179 -54.2788 
-55.6338 -56.1083 -52.0898 -54.1338 -54.5047 -46.1474 -58.8047 -73.4898 -91.1616 
-92.0222 -50.7127 -46.0357 -47.4318 -48.121 -46.2111 -45.8655 -46.2942 -45.987 
-51.3114 -47.5657 -45.0017 -57.8473 -46.4206 -52.1297 -57.271 -45.9535 -81.1727 
-88.5696 -91.531 -90.2924 -93.3847 -46.9847 -58.7137 -52.4119 -46.5965 -52.1722 
-48.8057 -48.7775 -46.4391 -60.5465 -50.5334 -52.837 -58.167 -59.6573 -55.7563 
-54.2242 -72.8861 -73.5417 -55.2524 -53.4206 -57.4313 -56.7896 -57.5931 -57.9665 
-56.5071 -57.401 -53.9214 -55.738 -54.7892 -54.1901 -58.4451 -57.6133 -50.6346 
-48.47 -87.4339 -96.7404 -46.1456 -51.8632 -46.2355 -54.0402 -49.3153 -51.4872 
-48.8591 -53.3007 -48.5496 -57.1392 -52.215 -59.3392 -53.7768 -58.7655 -53.2218 
-48.918 -47.9624 -46.1061 -49.3597 -86.8876 -62.8576 -79.9558 -67.7173 -48.5265 
-47.1347 -51.4105 -53.7107 -53.5004 -52.8356 -51.7604 -57.5342 -53.0194 -54.811 
-56.0148 -76.5944 -45.8736 -55.6961 -60.9324 -63.6788 -69.427 -49.9623 -56.8616 
-45.3435 -45.6488 -45.9285 -47.7983 -56.195 -51.2492 -64.5997 -59.9513 -61.3467 
-70.5519 -47.4981 -46.8393 -46.4077 -46.5434 -54.7019 -46.4626 -46.7002 -50.4293 
-49.1785 -49.659 -49.5459 -56.8747 -52.8527 -54.708 -70.42 -66.1005 -47.9654 
-54.6353 -58.4963 -53.8504 -46.0452 -45.9282 -46.374 -58.5928 -68.857 -48.0172 
-48.6492 -60.4524 -46.4 -53.9648 -56.9541 -51.3199 -51.6591 -53.2097 -46.9253 
-56.8923 -57.7827 -50.384 -87.0218 -90.578 -88.7675 -67.7935 -45.9669 -46.2813 
-48.8023 -47.5813 -47.3413 -88.8753 -81.6787 -66.7445 -75.5653 -67.4392 -82.4386 
-75.1726 -49.7813 -50.3949 -91.611 -82.9936 -96.7886 -46.1038 -46.2299 -46.4452 
-76.4814 -70.8125 -64.3619 -69.2418 -81.3605 -58.013 -55.3405 -75.6011 -72.7556 
-92.4606 -57.6324 -68.1019 -89.0412 -70.0181 -70.9932 -57.4356 -77.0998 -60.4841 
-57.8316 -56.5592 -45.7041 -48.459 -45.896 -50.324 -47.6628 -51.3022 -47.3282 
-53.4291 -48.2102 -58.2561 -58.1537 -56.9574 -52.3837 -76.0601 -70.693 -59.329 
-65.8557 -57.7732 -64.8457 -52.0359 -48.7764 -48.1049 -46.3152 -46.3728 -52.9501 
-54.9204 -47.0889 -54.1011 -47.3416 -54.4092 -48.8483 -51.3628 -57.4214 -54.6432 
-56.9175 -48.0288 -64.9215 -51.5676 -56.568 -83.1324 -51.3488 -64.9943 -60.5964 
-51.1959 -55.9685 -55.6106 -54.4247 -54.3818 -54.657 -55.1003 -54.6858 -54.8524 
-54.95 -47.876 -52.3861 -56.2891 -54.1962 -46.1175 -57.3799 -61.7225 -64.9524 
-58.9149 -59.2815 -46.1687 -46.3084 -46.308 -57.4998 -56.7976 -57.0388 -57.2236 
-46.4894 -49.2871 -57.1613 -57.9795 -57.6251 -57.3013 -54.8599 -55.1796 -48.6868 
-45.9063 -49.3397 -46.0653 -45.8702 -46.3253 -46.3652 -46.2371 -65.0839 -76.6812 
-83.0602 -86.6734 -56.1993 -53.6389 -49.9855 -56.8364 -47.0463 -62.0277 -61.6956 
-43.4384 -43.955 -68.4073 -67.4326 -46.766 -46.3021 -46.5725 -89.9462 -89.3511 
-80.8949 -69.9506 -63.4498 -73.8849 -57.9699 -74.9858 -48.1698 -49.353 -48.7256 
-49.9067 -48.0518 -48.4253 -47.7427 -51.4942 -50.6394 -46.235 -57.2333 -47.9285 
-67.9201 -90.0731 -76.8849 -47.5142 -45.8087 -46.8226 -54.4806 -47.6042 -45.8871 
-48.5076 -46.118 -46.3881 -60.8333 -56.0643 -82.7667 -67.5462 -48.5195 -47.301 
-48.105 -48.6971 -96.3365 -74.7877 -83.5807 -58.4584 -75.9537 -54.5066 -48.5631 
-50.1289 -57.3659 -55.2921 -52.4784 -56.9734 -49.1617 -49.9223 -50.4619 -56.3652 
-56.0121 -56.3081 -56.5741 -57.511 -47.0893 -45.7472 -64.2478 -69.2879 -57.2831 
-82.6899 -49.9047 -56.517 -58.8602 -60.5348 -56.8648 -61.8526 -57.5526 -57.8056 
-58.6355 -58.7885 -58.1991 -61.449 -62.2758 -57.0207 -89.8776 -45.955 -45.9407 
-51.2135 -49.943 -45.9198 -48.0218 -46.9523 -45.1206 -45.8176 -46.2 -46.0765 
-50.9587 -46.0365 -56.7438 -52.4969 -53.1448 -53.5072 -54.9448 -57.9109 -45.444 
-45.8605 -56.9546 -50.8181 -47.1779 -45.6779 -47.0567 -51.739 -46.5851 -48.1401 
-47.4023 -45.3957 -47.0271 -73.9254 -77.3718 -68.5376 -51.9509 -45.9262 -71.6411 
-61.9221 -57.1961 -53.3417 -71.518 -58.1257 -49.4996 -51.4199 -46.3723 -46.4284 
-49.6502 -54.4481 -52.0317 -46.5353 -46.484 -48.7565 -46.0886 -58.9888 -57.5338 
-58.8261 -58.9722 -55.7986 -48.2404 -71.0533 -47.3541 -47.4402 -46.8033 -53.744 
-47.4445 -51.8852 -45.3719 -49.3271 -44.4912 -96.1681 -85.5486 -55.488 -65.3393 
-53.5515 -70.0984 -52.8088 -71.6882 -66.4145 -66.1014 -62.1108 -69.8592 -48.563 
-51.2152 -45.6337 -47.1797 -48.5341 -46.6231 -45.9153 -52.4933 -55.2887 -46.0994 
-46.1945 -51.2141 -45.86 -45.9102 -55.3683 -56.8274 -53.0947 -53.9826 -47.0072 
-48.1005 -46.2807 -46.0365 -53.6786 -52.8859 -52.1656 -47.8978 -46.0724 -46.1058 
-46.7297 -45.9699 -46.1967 -46.2223 -44.4843 -44.72 -43.9057 -49.0813 -52.3448 
-46.0324 -47.142 -46.6557 -77.8632 -51.2183 -63.1647 -95.2408 -95.8469 -66.878 
-58.4176 -57.6918 -57.6466 -58.1596 -57.6835 -57.2039 -60.6919 -54.3375 -56.4588 
-57.1993 -50.8818 -46.5116 -46.4266 -46.9857 -47.603 -46.2801 -46.5312 -67.6261 
-52.9421 -82.575 -57.1618 -56.0264 -55.5367 -52.2922 -49.0028 -52.6825 -57.4858 
-69.6632 -78.4564 -94.6412 -72.4569 -46.009 -49.4701 -46.3241 -49.9083 -46.1508 
-45.9772 -57.1319 -57.8682 -45.9583 -46.288 -45.8302 -46.274 -51.9049 -56.2763 
-56.8488 -56.6183 -56.7156 -58.3232 -54.6994 -56.6994 -54.7397 -56.5963 -55.4876 
-56.6352 -57.6541 -55.6589 -59.6721 -57.5708 -60.6238 -53.2295 -53.2722 -56.8595 
-55.4687 -55.3735 -50.9369 -49.4513 -50.6636 -53.5649 -83.3125 -87.5354 -53.9055 
-46.473 -54.3103 -57.2143 -56.8547 -46.6343 -46.5003 -49.5668 -46.2624 -55.4136 
-56.147 -56.2014 -57.2158 -46.123 -46.1581 -45.5273 -45.6031 -46.5351 -46.7746 
-60.0289 -50.4907 -46.5148 -68.3694 -50.0104 -49.9535 -54.19 -62.0478 -46.3089 
-48.3517 -57.6134 -53.7863 -57.3066 -57.1213 -56.8991 -57.1246 -51.4928 -45.7665 
-45.8914 -45.0467 -45.5131 -47.3265 -49.5739 -47.8522 -45.4472 -46.9968 -46.8095 
-45.6835 -46.5255 -53.1375 -54.4931 -54.9561 -55.8831 -46.3767 -46.9148 -47.424 
-44.463 -44.2751 -43.8844 -68.552 -52.1784 -50.2367 -49.1674 -51.9012 -49.5404 
-54.9048 -80.9438 -55.2939 -64.4841 -47.4867 -46.3204 -47.4809 -46.0708 -56.6079 
-55.7368 -53.3745 -54.7631 -48.0489 -46.4473 -46.7631 -48.8219 -46.722 -46.1409 
-56.4512 -49.2662 -51.3031 -49.8302 -50.747 -67.1684 -72.5534 -62.0673 -58.631 
-51.778 -67.0546 -65.7204 -47.2072 -46.0665 -49.6144 -50.8805 -49.9975 -55.8251 
-57.7867 -50.3149 -51.6578 -56.6461 -49.9147 -54.1626 -52.2348 -56.591 -56.8178 
-79.7608 -56.7995 -78.4793 -59.1924 -93.422 -82.77 -46.0682 -46.3431 -46.2525 
-45.6155 -51.4702 -51.502 -50.9506 -54.1386 -46.5095 -45.9864 -46.4443 -46.319 
-46.1325 -46.141 -46.1362 -45.9446 -46.5401 -73.1191 -85.8109 -91.9924 -68.6277 
-59.0994 -56.2667 -57.5235 -57.6511 -63.3744 -60.8286 -46.4562 -61.31 -57.0601 
-75.1208 -50.7432 -58.0305 -49.7694 -59.295 -64.1572 -53.5656 -53.4847 -47.0315 
-56.8342 -52.5236 -57.3133 -53.2494 -95.8701 -89.5716 -86.2706 -59.7526 -73.4811 
-47.9933 -51.1206 -55.3789 -51.6876 -57.1007 -55.0333 -54.108 -56.6519 -49.648 
-45.933 -46.7667 -46.7943 -46.7385 -46.163 -55.6503 -54.2914 -55.7029 -56.4879 
-58.1434 -53.9994 -52.1049 -53.4344 -55.9596 -54.2123 -56.6109 -53.0782 -56.1299 
-55.6341 -57.0649 -55.3177 -58.1 -47.1612 -56.6427 -46.7721 -51.1307 -76.0553 
-47.9269 -54.8721 -59.9164 -51.0429 -64.1423 -60.317 -85.644 -89.4194 -46.0418 
-47.4947 -55.5868 -57.1533 -58.4268 -59.5184 -53.2188 -50.5832 -51.764 -49.4279 
-57.4927 -53.8021 -62.6629 -66.614 -71.0573 -71.4285 -59.7727 -82.7426 -87.6544 
-75.1316 -82.4295 -79.9288 -46.1688 -54.14 -45.9763 -49.4316 -54.9995 -52.5088 
-88.3423 -70.4196 -47.3277 -47.9296 -48.3173 -54.241 -44.4477 -52.2291 -53.2382 
-48.0357 -47.6306 -50.3782 -60.7915 -54.7289 -61.0825 -63.3964 -63.152 -68.5414 
-46.5939 -46.1171 -81.987 -67.1024 -66.4728 -71.4883 -73.1936 -62.5186 -51.8631 
-49.509 -53.4726 -47.563 -66.7615 -65.4307 -71.5856 -46.7025 -47.9002 -45.666 
-46.9234 -55.7758 -53.7684 -55.2918 -56.5255 -53.262 -59.6713 -57.4649 -48.7646 
-53.9673 -47.0015 -61.5848 -56.654 -58.5479 -55.9443 -56.5138 -56.8939 -46.5768 
-57.3828 -46.7122 -45.9548 -47.0404 -46.0291 -52.9806 -50.6177 -46.6076 -46.3519 
-78.811 -85.0318 -66.4888 -85.6386 -63.7449 -79.0927 -72.2748 -45.33 -76.1138 
-77.14 -76.788 -74.2055 -45.9095 -51.5144 -52.7771 -52.6373 -45.7958 -45.7556 
-47.4722 -58.0369 -45.8982 -56.7126 -46.5601 -46.2647 -73.7769 -73.6695 -76.8692 
-82.5313 -101.124 -89.1949 -100.875 -57.0943 -74.206 -57.302 -58.0027 -57.1537 
-57.4252 -56.6839 -46.4371 -45.6899 -47.2635 -46.7547 -58.6183 -58.3411 -54.5761 
-46.3625 -47.5335 -71.3179 -67.9728 -51.6614 -84.4714 -69.2531 -51.2465 -53.6155 
-50.5331 -49.107 -48.3898 -54.9498 -51.2414 -56.8909 -57.4041 -57.374 -55.7834 
-46.9377 -47.0955 -46.6682 -46.5657 -46.7826 -49.0398 -51.6522 -49.1217 -83.3478 
-65.3451 -101.829 -63.8933 -53.1744 -53.0894 -52.0672 -50.0641 -50.8918 -48.4494 
-48.1796 -47.6684 -50.0631 -51.0495 -46.0707 -45.751 -51.5238 -52.4263 -48.9267 
-52.378 -46.4924 -53.7495 -56.9454 -66.9357 -52.4765 -66.2431 -57.5879 -60.3463 
-43.8651 -87.9905 -43.518 -49.2197 -53.4032 -54.9979 -51.9808 -53.7374 -56.0654 
-55.2642 -52.8242 -45.9678 -46.671 -50.2818 -46.0409 -45.9028 -46.3216 -56.505 
-58.5814 -56.4809 -55.9968 -56.5479 -50.3086 -48.6819 -49.6093 -51.4405 -57.9386 
-50.126 -51.71 -46.104 -75.5503 -97.7258 -85.5898 -54.6629 -45.9565 -104.322 
-97.6823 -48.1453 -45.8294 -46.0686 -47.9082 -66.1996 -91.8691 -62.3552 -47.3837 
-46.4361 -50.6021 -52.0169 -54.6116 -51.8448 -46.3775 -45.8479 -49.8169 -46.6659 
-46.0491 -52.4576 -45.8898 -46.7848 -46.9269 -47.3765 -46.6349 -90.7406 -92.6857 
-95.9006 -79.4953 -88.3051 -49.0108 -51.2012 -49.1468 -46.502 -55.8785 -87.503 
-81.6365 -66.7163 -62.8504 -82.8193 -73.1352 -88.4495 -84.5863 -63.5812 -61.8221 
-62.6034 -64.3909 -92.5383 -47.538 -45.1257 -49.1748 -45.9614 -52.2094 -49.582 
-49.3706 -49.9393 -50.3151 -52.2147 -49.727 -54.701 -57.3716 -56.9911 -47.6894 
-60.1713 -46.3948 -48.9886 -47.6674 -85.6683 -83.3569 -82.9282 -52.2783 -50.8306 
-50.5644 -47.3523 -46.7801 -53.2436 -53.6585 -54.2229 -53.4929 -46.1228 -45.5355 
-80.3886 -85.6031 -84.9067 -53.8617 -57.5189 -50.6048 -47.2066 -48.7389 -46.724 
-46.5748 -46.3586 -46.0631 -45.8509 -91.27 -88.537 -78.2469 -64.6775 -78.8042 
-87.91 -94.1808 -48.3739 -50.5248 -58.3992 -52.6215 -49.0326 -57.4657 -64.8892 
-50.7952 -45.657 -45.5389 -47.2055 -47.8295 -84.7797 -85.4264 -70.875 -67.0363 
-91.5614 -79.8812 -46.3977 -46.1861 -49.9966 -48.7988 -47.7924 -51.006 -50.8201 
-53.2722 -69.9476 -77.2056 -66.3954 -65.3239 -71.8705 -63.0303 -72.8784 -66.0137 
-56.145 -57.6301 -46.218 -46.6034 -47.6129 -51.2401 -47.692 -48.5814 -47.0499 
-47.5884 -81.9167 -74.9031 -79.9508 -93.4198 -47.4267 -46.1832 -49.198 -46.203 
-46.2309 -46.4521 -50.8578 -45.8111 -45.7723 -47.9223 -74.8174 -58.1739 -47.8575 
-81.5117 -80.9066 -56.3532 -77.4545 -78.4221 -81.3824 -51.6114 -61.9011 -58.1668 
-82.6693 -45.753 -45.995 -53.7913 -45.9347 -46.7738 -45.9137 -45.9576 -49.8969 
-46.9001 -74.4927 -46.3352 -48.4447 -49.505 -47.0039 -52.9484 -48.0064 -47.131 
-49.8578 -46.1512 -46.8089 -45.7468 -45.947 -47.0295 -55.2297 -77.7824 -64.5017 
-77.5249 -59.9929 -68.2499 -78.7132 -80.2659 -51.8771 -46.4571 -46.0811 -46.4367 
-46.2542 -46.3916 -49.0864 -48.6913 -56.8312 -47.2907 -48.1211 -48.1142 -46.2065 
-48.4535 -49.7228 -49.3924 -46.1863 -51.0599 -47.8111 -50.0961 -48.2504 -61.9516 
-62.5173 -54.8005 -54.1672 -62.9154 -48.1169 -62.063 -49.2906 -68.8694 -49.3417 
-57.1327 -56.1618 -45.4129 -44.8805 -53.7408 -54.9522 -53.3384 -53.7049 -54.265 
-45.8634 -50.6578 -50.914 -49.3598 -51.7708 -55.6267 -50.1561 -50.6037 -50.1389 
-45.8857 -45.8383 -52.7825 -47.3753 -47.5889 -44.6051 -45.3501 -45.007 -45.1892 
-44.8629 -44.1066 -71.4274 -59.0178 -57.0548 -58.6514 -58.4388 -53.0204 -56.2125 
-55.9033 -62.9371 -52.4007 -82.1685 -56.7908 -52.5829 -62.6283 -58.0063 -58.0286 
-56.2342 -57.5814 -57.7813 -58.7995 -58.0693 -58.3267 -57.7625 -50.6868 -46.1141 
-51.411 -46.5126 -46.6476 -45.9489 -45.8354 -46.785 -56.776 -64.5931 -58.2773 
-57.4115 -61.6684 -62.2262 -60.5454 -61.6583 -60.6076 -65.9178 -54.7672 -56.1603 
-56.1801 -53.984 -52.1947 -47.7137 -48.9222 -52.3773 -49.7165 -48.4172 -51.4766 
-50.6116 -52.3887 -55.3307 -46.6159 -55.4063 -54.839 -55.2198 -55.4578 -55.251 
-54.8079 -56.1558 -55.7155 -55.2388 -53.9192 -55.3452 -53.6984 -55.3447 -55.8287 
-56.2004 -54.277 -52.4611 -55.128 -53.5803 -54.7277 -54.1293 -47.7574 -50.6069 
-48.7267 -50.5759 -50.5615 -46.659 -52.3166 -56.2673 -56.6225 -54.4467 -54.925 
-57.3738 -53.5937 -53.8659 -55.7657 -54.1666 -77.8282 -70.3572 -55.8487 -78.432 
-85.747 -91.5531 -69.9913 -59.0577 -72.2291 -55.8759 -54.1031 -47.6044 -49.9484 
-46.0504 -46.8493 -48.9581 -48.6751 -49.7892 -48.4202 -48.6812 -52.0538 -50.5977 
-50.6732 -45.8825 -76.3943 -75.0182 -71.7674 -51.5529 -54.5317 -53.1518 -53.7111 
-52.9919 -46.8757 -52.403 -50.436 -46.4919 -46.5613 -46.8172 -46.7465 -47.0051 
-52.428 -46.7465 -45.9732 -45.8789 -48.6022 -47.6714 -48.6347 -57.7502 -47.769 
-61.0776 -56.0819 -56.5895 -65.939 -56.0766 -62.0261 -62.4801 -70.2164 -54.7369 
-55.2376 -53.6141 -54.8315 -54.8383 -55.0413 -55.2089 -53.3365 -53.7319 -57.1572 
-73.1962 -60.2422 -80.96 -74.4032 -50.3379 -52.0677 -51.2596 -46.0391 -45.9914 
-45.8737 -46.0157 -46.2261 -46.0784 -45.8329 -47.7723 -46.7443 -46.3267 -73.6568 
-54.0174 -75.9419 -81.6303 -51.4209 -58.4272 -50.7193 -58.2945 -54.9073 -63.4353 
-51.0882 -48.0247 -52.4704 -55.0957 -49.7857 -68.7795 -46.1316 -68.8045 -55.061 
-48.6602 -55.3906 -52.5954 -52.121 -61.3738 -55.6153 -57.3175 -52.8364 -56.6424 
-56.6983 -57.0045 -56.1219 -53.4749 -57.6251 -56.1362 -55.3598 -56.9256 -54.7183 
-54.301 -53.5234 -63.4667 -53.435 -66.3106 -63.7661 -64.1988 -64.9395 -58.9038 
-56.7911 -58.1206 -57.3843 -58.3701 -58.8082 -58.0533 -58.6582 -58.7035 -59.0246 
-58.7014 -58.8014 -58.9222 -59.3207 -58.5839 -48.4046 -54.2272 -53.7159 -46.6929 
-56.8286 -55.4512 -47.727 -51.4798 -49.9245 -47.166 -46.7924 -45.9678 -46.9331 
-46.1206 -46.4223 -50.1219 -57.7032 -56.0036 -54.4467 -46.974 -52.2489 -48.097 
-47.3467 -50.2628 -46.9257 -47.4279 -47.8692 -62.7795 -59.5296 -57.3785 -58.838 
-79.508 -87.9681 -77.5191 -77.4257 -67.7318 -63.0678 -52.1367 -52.2876 -51.4438 
-50.5664 -50.324 -48.6738 -51.1474 -51.3864 -46.5517 -50.4177 -58.704 -51.9588 
-52.0812 -52.923 -47.0121 -88.9872 -70.3881 -95.6841 -76.9212 -81.127 -66.8821 
-63.968 -84.9222 -56.4311 -48.7903 -47.6938 -47.4707 -48.214 -45.5358 -56.7425 
-56.2742 -53.3308 -60.4202 -60.3974 -55.7656 -51.248 -55.115 -57.601 -59.5312 
-58.962 -53.6094 -64.433 -46.8156 -50.2665 -47.1876 -54.3862 -53.0478 -46.3132 
-46.9723 -46.3556 -46.1508 -48.5031 -50.2996 -46.5049 -46.0808 -46.2708 -50.0016 
-51.4417 -45.704 -46.1945 -46.0451 -46.9851 -47.1871 -48.2816 -45.7702 -45.8527 
-46.0796 -53.9115 -53.0391 -56.3432 -52.4086 -50.9661 -56.4331 -47.415 -52.1718 
-49.7096 -49.0193 -48.0138 -49.6346 -56.7203 -46.6846 -47.7688 -57.5028 -57.5832 
-54.6109 -45.0551 -54.2904 -46.0976 -45.4921 -46.5325 -47.8329 -47.6656 -47.4557 
-47.2475 -50.2547 -48.8343 -56.9462 -55.4701 -57.0716 -62.3383 -57.5291 -79.728 
-77.6034 -52.0337 -54.6912 -48.5534 -60.6938 -52.8326 -52.317 -51.7708 -53.1755 
-46.478 -46.1801 -49.8484 -49.9039 -46.0274 -46.5163 -46.5882 -49.6905 -46.247 
-49.7963 -52.1888 -48.5149 -50.0131 -49.9072 -49.1158 -54.4343 -51.4525 -50.4878 
-46.0277 -51.8149 -46.1893 -46.2114 -49.4817 -46.9094 -47.222 -46.9432 -46.3425 
-49.1034 -45.6557 -46.6187 -45.7884 -49.4047 -47.1708 -51.2714 -45.9551 -47.0117 
-54.2016 -45.6862 -57.3492 -46.0028 -47.2844 -45.9254 -47.9922 -46.8887 -53.0838 
-54.0942 -45.9975 -46.7915 -56.3773 -57.0721 -56.5986 -57.2572 -55.7954 -54.6658 
-56.0637 -55.3424 -55.767 -56.1046 -55.7336 -47.2613 -46.9241 -47.3578 -49.0692 
-49.6475 -58.2926 -58.0549 -57.4713 -48.5265 -57.0637 -56.2188 -55.2455 -55.1126 
-54.6703 -55.2282 -55.7687 -51.9769 -56.2801 -58.0748 -55.7023 -58.204 -58.3206 
-57.0454 -56.7532 -56.118 -47.3243 -49.4062 -58.4419 -58.499 -58.349 -54.6415 
-57.6775 -55.6453 -57.5813 -58.3255 -58.3881 -57.4271 -58.1313 -57.8125 -58.1426 
-51.7094 -53.6306 -55.6952 -46.1272 -50.7092 -51.7986 -45.8077 -49.9382 -46.5658 
-67.3446 -50.183 -51.5008 -51.0304 -52.3807 -50.7021 -51.858 -47.8164 -50.4407 
-47.3816 -56.9626 -54.378 -53.3337 -55.8827 -57.5825 -57.5149 -57.0794 -57.8545 
-46.0701 -46.0874 -46.886 -46.7539 -50.5097 -46.8956 -47.0789 -54.7294 -60.7452 
-52.2732 -50.3898 -52.3965 -50.3015 -56.0756 -56.3378 -59.0793 -59.6817 -50.2199 
-46.2858 -46.1772 -49.9667 -45.9436 -49.1991 -47.3262 -49.6504 -50.7759 -47.815 
-47.9745 -50.5744 -48.7694 -50.0846 -63.0787 -62.8325 -56.8268 -64.9474 -61.9435 
-60.0874 -58.5892 -58.0234 -57.727 -57.1344 -60.9182 -57.7736 -52.1615 -50.6807 
-49.3033 -48.9376 -48.6585 -48.8459 -45.8185 -50.0259 -46.3917 -46.5817 -51.0064 
-57.3943 -69.6909 -77.9986 -59.5669 -57.7154 -62.1773 -66.6377 -63.5905 -70.7164 
-66.7747 -66.7194 -47.251 -46.0143 -46.7001 -51.1984 -45.9384 -46.1619 -46.6792 
-46.8584 -48.3284 -46.5678 -46.2404 -46.6511 -46.5143 -45.8861 -46.1232 -46.6985 
-46.7644 -48.0002 -46.4091 -49.3062 -50.052 -59.6161 -48.9191 -71.786 -61.5462 
-58.0636 -60.0591 -49.5682 -51.8078 -49.548 -47.2073 -52.7738 -45.9717 -56.7397 
-57.4877 -57.2769 -57.9821 -58.8331 -58.2975 -58.4471 -56.7873 -57.6781 -46.0858 
-46.6953 -46.2277 -46.2658 -46.3778 -46.2851 -46.857 -46.879 -57.3016 -56.2803 
-56.4724 -57.1607 -57.8058 -57.9565 -56.7628 -56.2061 -53.4154 -56.5432 -58.2645 
-51.6948 -57.6843 -56.0989 -55.2559 -55.8182 -54.9725 -54.0068 -56.1803 -55.4811 
-56.3391 -52.3721 -54.5178 -67.7975 -46.271 -45.8298 -46.2966 -46.3834 -52.5968 
-47.098 -46.1851 -45.916 -47.8049 -45.9507 -46.8265 -45.9855 -45.4277 -51.4241 
-46.2743 -45.8689 -45.8391 -53.0167 -50.4407 -53.2739 -52.3112 -53.8047 -54.3109 
-53.8451 -54.0179 -58.6081 -57.9815 -57.8106 -69.7356 -58.5618 -58.235 -58.7007 
-94.3148 -95.3301 -69.3941 -79.0657 -66.9156 -65.2766 -46.9374 -46.2211 -46.3308 
-51.7294 -50.1184 -52.0504 -46.8668 -55.694 -46.8075 -50.5714 -57.0638 -58.2715 
-51.3345 -51.5301 -46.3031 -53.5071 -50.8271 -50.6335 -51.7575 -46.7667 -46.6408 
-45.7596 -46.9992 -49.5093 -48.1245 -65.8808 -56.5606 -68.1349 -65.1701 -60.1426 
-70.0475 -62.0335 -83.7642 -79.2818 -58.5162 -52.5519 -50.9949 -56.6379 -48.5218 
-51.7804 -47.733 -46.0388 -49.9075 -52.5532 -55.059 -54.367 -54.5737 -53.6649 
-46.0539 -46.8522 -47.2639 -47.0244 -47.4827 -47.7872 -47.2788 -48.4701 -52.7005 
-51.1953 -52.2606 -51.165 -57.5173 -56.2676 -56.942 -46.9265 -54.5687 -50.4391 
-58.4236 -58.1049 -48.5978 -52.8205 -55.6423 -60.1818 -55.478 -52.4403 -54.5659 
-53.0727 -54.3145 -52.219 -52.5782 -46.2569 -46.0727 -46.3267 -46.3154 -49.2148 
-46.2027 -56.7895 -45.7631 -46.0504 -74.5995 -75.8978 -72.7322 -58.3982 -58.6646 
-58.4389 -58.0905 -57.8668 -57.769 -51.2528 -51.1869 -53.6351 -54.9889 -56.0436 
-50.9574 -51.3562 -54.1405 -52.4035 -54.5282 -57.8286 -57.6668 -56.6784 -56.7865 
-57.9465 -55.5174 -53.3835 -51.9872 -53.4442 -46.3072 -49.0983 -50.2451 -47.6897 
-49.4925 -49.3083 -49.1985 -49.4184 -49.729 -47.8098 -47.4763 -46.9138 -46.6112 
-47.4472 -46.6563 -46.854 -46.278 -47.4941 -46.3999 -59.9816 -64.3116 -63.7076 
-49.8403 -48.0631 -49.3887 -49.6827 -46.9412 -47.8399 -49.2685 -51.0052 -50.8695 
-50.195 -52.8823 -51.4316 -50.9753 -58.0457 -51.5248 -67.7644 -53.204 -59.5813 
-51.1669 -49.3797 -52.0661 -47.4074 -54.7802 -49.0837 -47.249 -50.0454 -49.5201 
-46.6634 -47.0149 -46.1535 -46.0028 -68.9684 -57.7494 -61.33 -67.4487 -53.0028 
-50.5142 -55.2547 -55.8824 -63.0103 -60.3491 -56.8627 -56.4042 -58.3416 -57.1823 
-55.966 -46.0731 -54.0395 -50.4811 -50.6006 -55.983 -56.2499 -56.8179 -56.1476 
-51.4458 -55.9753 -56.636 -56.4317 -56.8735 -57.112 -57.5896 -48.5702 -55.789 
-56.3648 -55.8997 -56.5351 -57.251 -60.9495 -54.6698 -56.9366 -57.4019 -51.5499 
-47.6572 -46.4737 -46.692 -46.3425 -46.0797 -58.5424 -60.7999 -63.3284 -60.6681 
-58.9855 -45.9886 -46.0255 -46.201 -46.762 -50.7929 -46.2231 -46.1808 -46.0917 
-47.0606 -55.4061 -52.2982 -52.1713 -49.7875 -51.8202 -51.7702 -57.4297 -54.3379 
-49.8721 -50.5977 -53.9733 -46.2758 -46.2086 -49.7099 -47.2392 -46.5214 -46.5449 
-46.2704 -46.0008 -46.0914 -46.2725 -47.1946 -45.9734 -49.224 -51.262 -52.1121 
-50.5428 -46.43 -54.5515 -53.044 -53.5329 -54.6322 -55.5339 -54.779 -55.6124 
-56.1624 -57.0142 -58.5856 -59.2344 -46.7433 -52.6625 -50.9504 -48.9359 -46.1317 
-46.137 -49.4542 -47.7717 -46.7165 -58.0355 -57.5623 -57.0794 -53.833 -52.0264 
-53.4406 -47.0088 -56.4244 -56.6332 -55.6578 -56.0438 -56.9826 -57.1947 -57.6191 
-51.1466 -49.2353 -47.3907 -56.941 -50.3805 -49.9035 -47.0815 -46.9192 -47.7011 
-46.2949 -46.234 -49.6944 -51.2484 -52.5688 -47.248 -56.9491 -46.4104 -54.5533 
-52.4607 -52.4276 -50.4598 -52.336 -52.9853 -46.9125 -49.9132 -55.0411 -55.0389 
-55.0127 -54.2833 -55.2399 -53.5673 -54.4741 -53.6957 -52.4802 -52.5585 -51.7372 
-55.2552 -51.6085 -56.0917 -56.6851 -57.8394 -56.7259 -48.8677 -49.0284 -47.4821 
-47.0982 -47.1297 -46.0895 -50.314 -46.594 -53.7445 -48.2964 -50.0594 -52.6713 
-54.2421 -47.6852 -46.3976 -51.8999 -45.7626 -47.0601 -45.9555 -45.9875 -46.1672 
-47.5381 -45.9629 -47.7219 -47.9545 -46.339 -48.3116 -48.5321 -50.3933 -50.7282 
-52.0718 -51.0906 -50.0263 -50.6467 -51.1913 -55.6664 -56.2323 -55.6838 -54.3238 
-54.7765 -51.5443 -47.3942 -46.7973 -48.6233 -50.9213 -47.5735 -46.3421 -50.1069 
-51.6726 -46.3766 -50.8501 -46.1956 -46.8879 -46.7764 -47.6882 -50.6774 -51.7966 
-53.4845 -53.9034 -56.447 -54.5898 -55.3639 -49.9724 -55.1522 -54.0581 -53.7848 
-54.281 -54.2635 -52.5834 -52.3019 -53.9075 -51.8793 -54.732 -51.4178 -51.5147 
-51.0041 -51.8004 -53.0982 -57.1319 -54.0601 -56.9186 -56.1988 -57.0412 -56.6717 
-56.7044 -57.3808 -55.7133 -56.6898 -56.074 -48.6086 -46.1669 -45.6088 -45.7849 
-45.7694 -46.0268 -45.8626 -46.5137 -45.7373 -46.0766 -46.223 -54.3534 -45.4113 
-45.5118 -47.7919 -50.0834 -46.4307 -51.0447 -51.1768 -50.8775 -51.171 -51.3139 
-46.0083 -46.3563 -45.9659 -45.8799 -59.7886 -56.5926 -57.788 -56.2269 -60.1221 
-46.4094 -46.8038 -47.9766 -57.7692 -55.2491 -58.2608 -57.585 -57.2578 -58.1318 
-57.6129 -57.0936 -57.9579 -57.7419 -49.6591 -47.9407 -49.4641 -47.6912 -57.0981 
-74.4826 -49.6987 -46.7404 -53.7793 -51.1181 -46.3215 -46.0391 -46.2667 -46.4345 
-46.4831 -45.6795 -45.7064 -46.0835 -46.3279 -46.9172 -45.8486 -46.4878 -53.6403 
-55.7386 -57.0345 -55.3424 -50.6608 -52.0396 -49.551 -46.155 -49.6132 -55.1495 
-55.483 -55.6748 -55.863 -55.4381 -55.63 -55.5627 -53.5493 -46.7711 -48.7608 
-45.6772 -49.8116 -52.5736 -48.135 -49.1875 -47.5648 -54.0468 -54.8227 -53.1242 
-54.3695 -54.2933 -53.3296 -51.9101 -51.3479 -56.4755 -57.5191 -57.4467 -57.666 
-57.2484 -58.1551 -57.2209 -55.7326 -53.4341 -57.5525 -55.0608 -55.0526 -56.4904 
-56.6481 -57.0595 -57.12 -56.5888 -56.2816 -56.9607 -57.9145 -56.7194 -55.8981 
-52.1253 -61.6319 -53.1771 -65.161 -63.3474 -68.9792 -61.0942 -70.7536 -57.3541 
-64.0225 -51.1606 -53.3793 -51.3296 -52.2492 -50.7158 -54.7741 -54.3411 -46.7707 
-46.5981 -50.1763 -45.772 -46.7742 -46.8827 -46.2042 -51.768 -49.1047 -51.0795 
-49.4944 -51.0847 -51.2729 -49.1122 -49.1817 -51.6474 -52.0519 -47.1106 -49.8969 
-48.3161 -46.6116 -46.4964 -47.8514 -46.8317 -48.2306 -46.1257 -48.1443 -46.419 
-46.0097 -48.5121 -48.6579 -46.7972 -47.0596 -45.9757 -47.5472 -48.9989 -46.3136 
-46.1815 -46.4513 -51.2325 -52.2922 -51.12 -50.624 -49.5179 -46.3491 -47.106 
-50.511 -47.3802 -50.1621 -54.4755 -47.2979 -50.0902 -49.8392 -51.9268 -52.0039 
-46.7316 -56.1057 -55.3036 -56.4936 -55.6449 -57.6437 -54.3538 -56.6443 -53.8708 
-55.4094 -56.4053 -56.4779 -57.0706 -50.2428 -57.3028 -55.5278 -55.7897 -56.9088 
-67.4845 -55.7344 -53.1742 -56.7866 -56.3914 -56.5247 -57.1892 -56.8327 -53.5722 
-46.658 -56.5835 -58.6273 -54.9455 -49.3258 -53.2798 -49.1269 -57.6129 -45.5714 
-49.0552 -50.1323 -55.2528 -50.0358 -47.6125 -48.9299 -46.9661 -45.8995 -45.7754 
-47.6472 -45.9778 -50.0872 -48.5824 -47.4746 -55.3304 -52.5791 -53.0354 -52.3713 
-51.8097 -46.8198 -47.3224 -48.5209 -46.4275 -47.4936 -46.999 -46.0544 -48.4257 
-52.8867 -52.2043 -51.4655 -51.3214 -50.3811 -47.5058 -47.3217 -45.0853 -46.8705 
-48.7938 -47.5218 -65.6493 -62.9918 -64.3436 -52.1035 -69.7953 -70.3242 -75.2596 
-76.2541 -98.6844 -80.3787 -77.5058 -82.0137 -86.1963 -87.0651 -79.0078 -55.4281 
-63.8596 -55.7353 -59.3766 -68.8229 -56.7472 -45.9872 -45.8644 -46.2188 -47.8308 
-45.8078 -53.6427 -47.0152 -45.6586 -45.8763 -48.31 -68.4302 -56.4132 -74.5575 
-85.4888 -83.5572 -79.9203 -48.8781 -57.689 -49.5341 -47.7802 -48.3003 -49.6305 
-52.6337 -49.2804 -54.4788 -54.1441 -55.3493 -55.3853 -53.8368 -55.6774 -54.6893 
-55.3523 -53.4909 -48.0549 -46.6653 -47.2982 -47.0833 -45.8889 -45.9795 -45.8921 
-56.3724 -55.5704 -55.6658 -55.5679 -55.9219 -56.2954 -56.1152 -55.0593 -54.7341 
-70.7308 -56.1972 -50.9948 -46.9489 -50.2401 -49.6137 -47.1785 -49.7166 -50.5798 
-50.5907 -52.8594 -49.7974 -51.862 -46.0783 -46.5356 -45.8017 -64.4594 -85.9902 
-66.9541 -56.1722 -65.881 -70.9209 -55.0993 -57.0398 -57.5827 -57.7028 -56.3724 
-49.9585 -46.2247 -46.3116 -49.1766 -47.8991 -49.5896 -49.8119 -45.9935 -47.03 
-46.1428 -47.8233 -45.7913 -45.8285 -46.043 -46.733 -46.6856 -50.7266 -52.8079 
-45.8747 -45.8547 -46.6056 -46.9295 -46.9608 -45.9421 -54.7372 -46.4851 -89.7326 
-47.8561 -68.5691 -95.3323 -79.864 -56.3251 -53.409 -56.7213 -57.1391 -57.3244 
-56.7873 -53.0119 -56.1082 -49.6945 -51.4451 -48.013 -48.8006 -53.1535 -54.9646 
-51.4855 -53.931 -55.8249 -50.7689 -46.1219 -48.0688 -46.4813 -46.1974 -67.2447 
-63.328 -53.3492 -69.1543 -60.3481 -66.5997 -54.0002 -57.4896 -51.8139 -56.5804 
-55.7078 -55.2247 -56.7799 -50.3821 -53.0015 -55.0474 -52.8376 -46.7449 -45.7318 
-46.8504 -48.3251 -47.337 -45.7605 -47.2667 -48.4415 -47.2079 -49.141 -46.3144 
-47.489 -46.5189 -46.468 -46.3075 -46.7791 -46.3305 -46.5578 -55.5627 -55.2875 
-55.2943 -55.1717 -55.2411 -61.9642 -54.7461 -48.562 -49.2381 -53.8563 -53.6026 
-53.2005 -56.4943 -58.1863 -56.0432 -53.5029 -52.9655 -52.1879 -54.2243 -56.6007 
-52.6768 -52.7571 -52.4769 -46.2794 -46.1818 -55.3624 -46.1762 -46.3029 -46.6161 
-46.3499 -51.7223 -45.9967 -70.7124 -63.9278 -55.2722 -55.1929 -53.6326 -68.6284 
-63.6772 -58.21 -68.6793 -61.8921 -70.2974 -50.5507 -52.9361 -63.658 -52.3847 
-45.7818 -48.3906 -53.9523 -56.4121 -61.6438 -58.1445 -58.3041 -58.3218 -57.5024 
-57.6411 -58.0075 -56.2519 -54.7168 -54.0971 -59.0097 -63.7404 -72.7792 -61.3293 
-58.0368 -63.005 -82.6139 -67.7056 -62.7479 -57.4373 -48.4153 -50.819 -79.9594 
-49.372 -46.7186 -50.0051 -47.1834 -49.6555 -51.2118 -47.1254 -51.8798 -51.7599 
-48.9701 -50.5719 -46.2312 -46.6605 -47.0644 -46.0503 -51.4046 -53.957 -50.0071 
-45.9455 -47.0359 -47.4935 -46.0822 -47.4135 -46.3697 -47.817 -49.5178 -47.8929 
-52.0599 -47.4837 -45.4354 -45.7715 -46.7781 -46.1173 -48.9511 -51.5758 -53.4436 
-59.5936 -49.4909 -51.1722 -52.5153 -48.6796 -55.1512 -53.8725 -54.637 -46.7869 
-47.2635 -46.2555 -55.1851 -45.7773 -49.1943 -46.8913 -46.5433 -46.4002 -51.2165 
-48.7809 -49.3055 -50.6221 -61.6229 -60.8166 -63.9213 -55.2518 -49.839 -50.1338 
-49.5992 -49.2569 -50.4004 -50.2052 -51.0024 -51.6376 -50.9104 -47.3386 -47.725 
-60.7203 -52.2323 -53.3207 -57.8694 -51.4459 -51.1484 -46.3552 -49.0929 -48.9569 
-48.9584 -49.4031 -49.6001 -49.4061 -50.836 -46.7111 -47.2015 -50.0008 -49.5869 
-46.6463 -46.8124 -46.9516 -46.285 -46.5774 -46.3233 -47.9439 -48.8983 -65.968 
-46.3403 -48.559 -48.821 -48.8912 -46.9286 -46.1181 -52.1658 -48.0229 -45.8941 
-46.9576 -46.0929 -46.6227 -48.7703 -49.2048 -49.3339 -50.6066 -48.724 -48.5294 
-48.7693 -49.5351 -49.0806 -49.7776 -57.0987 -62.1491 -55.7819 -62.6043 -85.4648 
-59.0524 -59.0866 -70.522 -55.4802 -57.7625 -56.8419 -55.8377 -54.6879 -53.834 
-53.3956 -52.7172 -47.1077 -46.3325 -46.8114 -46.6837 -47.6928 -49.7858 -51.156 
-50.2374 -47.2044 -59.3762 -50.3201 -46.8811 -47.2125 -47.799 -46.1644 -46.2738 
-51.0327 -51.9312 -46.9877 -50.2821 -53.4511 -46.626 -46.6991 -51.6264 -50.8179 
-46.7885 -68.3451 -62.1887 -80.5134 -53.7622 -56.5355 -71.6866 -74.1463 -63.6835 
-59.5517 -89.4484 -78.6416 -84.1409 -44.9997 -79.4758 -56.3058 -58.4064 -56.4663 
-57.8638 -58.4169 -58.3748 -57.9502 -58.4962 -58.6178 -54.8638 -57.163 -58.174 
-57.2875 -53.6729 -53.6392 -53.8552 -54.8747 -54.5841 -57.6158 -60.0344 -58.8997 
-57.7422 -57.4368 -63.1249 -55.6019 -53.2144 -55.4461 -54.3879 -54.9389 -50.6239 
-48.6105 -49.9846 -51.3301 -52.2789 -53.1038 -52.8464 -55.3035 -54.7657 -56.9502 
-54.5816 -54.7378 -55.3027 -55.2631 -55.3454 -55.7974 -55.272 -53.9303 -52.9705 
-55.3535 -54.0741 -54.3136 -45.9993 -47.0928 -56.7402 -54.3204 -51.8986 -49.0418 
-53.1491 -56.7231 -53.7043 -49.6419 -49.8483 -48.7468 -46.7311 -46.2526 -46.0954 
-46.5898 -47.8533 -49.9642 -54.1057 -47.3728 -49.1593 -56.8408 -60.8698 -57.6687 
-61.7096 -63.073 -61.2924 -49.8074 -54.4467 -61.542 -58.0242 -57.9252 -56.7135 
-57.2006 -57.5107 -57.1521 -55.5617 -57.1452 -53.2602 -54.0091 -57.5709 -52.9028 
-57.9413 -57.1448 -54.0282 -50.8695 -55.2283 -58.6721 -60.0509 -48.2589 -46.7044 
-46.2551 -47.8926 -49.325 -50.3163 -46.3877 -47.7846 -47.4 -48.4984 -46.4197 
-50.2385 -51.9518 -46.5154 -50.5902 -51.9188 -52.0979 -47.3586 -46.0852 -53.4713 
-53.3704 -54.3208 -56.5144 -54.613 -54.1102 -48.8123 -46.2055 -51.5294 -46.2144 
-46.3315 -50.2003 -46.4287 -46.3117 -46.2714 -46.3493 -46.9253 -45.979 -46.8887 
-49.016 -47.8979 -47.5332 -49.2226 -47.3021 -57.3855 -93.4097 -56.5634 -55.2654 
-55.6552 -55.3664 -55.8151 -55.5263 -54.5663 -54.1844 -54.149 -52.7227 -57.3873 
-54.8269 -51.382 -67.1195 -62.5603 -56.787 -58.9381 -58.8662 -58.943 -58.9402 
-58.9484 -58.8408 -52.4381 -49.6522 -49.5691 -52.3039 -51.9094 -48.8857 -49.399 
-48.7472 -56.8316 -58.943 -56.6366 -54.0024 -55.2494 -56.5358 -54.8191 -51.4551 
-52.8763 -60.955 -57.4049 -59.7628 -63.421 -56.4877 -47.7584 -53.0008 -54.5482 
-53.2202 -54.3817 -51.8257 -53.4389 -52.6904 -52.6866 -54.6431 -50.3343 -52.5004 
-54.5153 -55.0403 -52.6911 -53.9702 -50.6144 -53.5045 -58.1282 -57.2973 -46.1775 
-46.1551 -46.288 -46.0725 -46.2724 -46.3542 -48.9034 -46.2742 -46.2102 -54.0265 
-55.0612 -54.3438 -53.8748 -52.6642 -54.3388 -56.851 -57.3293 -49.3464 -58.3467 
-50.8679 -63.1166 -55.651 -54.6156 -46.1871 -46.8116 -46.2233 -46.3626 -46.9923 
-46.2649 -46.1908 -46.1786 -46.2091 -46.0451 -47.1155 -46.0252 -45.8832 -46.0829 
-45.9862 -47.204 -46.6685 -55.4025 -45.9821 -50.1016 -53.2083 -54.0564 -46.2248 
-50.9206 -52.4426 -54.9698 -54.0852 -52.186 -52.758 -87.2025 -48.8771 -45.6686 
-47.4782 -61.4954 -62.3881 -61.052 -61.2901 -69.2125 -60.7452 -58.4984 -47.3935 
-49.8888 -47.7676 -46.2104 -48.3692 -48.1745 -48.8524 -63.013 -77.2997 -58.4927 
-54.5927 -57.2216 -55.8365 -45.9019 -46.5193 -46.4007 -46.2854 -53.744 -45.7637 
-46.1211 -46.2036 -46.3934 -48.6912 -46.8453 -48.3104 -46.2648 -50.7543 -46.7978 
-49.9562 -46.3863 -59.9753 -62.5789 -58.2303 -59.5219 -57.9165 -51.0028 -51.4121 
-48.3372 -51.6054 -50.6264 -50.4732 -50.3146 -51.2755 -55.4039 -50.9329 -46.1829 
-48.0685 -48.9714 -52.4514 -49.3964 -57.7644 -58.4015 -54.3919 -49.1723 -54.4451 
-56.9809 -49.0004 -49.886 -47.5524 -46.0289 -49.3183 -58.9683 -64.0973 -58.1794 
-60.4618 -47.2218 -48.5256 -48.3008 -47.3869 -46.0478 -51.8565 -48.5873 -47.9048 
-53.2895 -50.9692 -54.6279 -50.4114 -55.0908 -50.4764 -52.7383 -71.5879 -73.1096 
-55.2803 -66.2288 -67.0751 -62.9248 -88.3919 -65.1253 -73.2614 -46.8696 -52.642 
-49.3934 -55.2716 -52.5392 -48.8695 -52.6371 -52.3728 -47.68 -46.3357 -46.2893 
-46.381 -47.589 -47.8169 -47.0439 -46.8353 -46.2717 -47.2181 -45.8515 -53.2287 
-47.7073 -49.0511 -48.5744 -46.3318 -46.2647 -46.0271 -54.4949 -55.8115 -55.9791 
-55.0504 -47.021 -46.4285 -46.4152 -47.2808 -46.4697 -47.0096 -46.3275 -46.333 
-46.2091 -55.4842 -54.6651 -54.1482 -56.7007 -55.5749 -54.9435 -55.5308 -48.3556 
-56.3537 -48.7944 -47.0695 -48.6784 -54.7091 -52.2771 -48.9412 -46.2932 -51.7607 
-85.9175 -60.8133 -81.8058 -80.9941 -78.4378 -90.1119 -52.9031 -59.2588 -78.7007 
-80.2171 -73.5089 -72.4411 -72.0125 -68.644 -46.1766 -47.8222 -46.2299 -46.151 
-51.2832 -48.4592 -46.7565 -46.7152 -46.497 -45.9892 -46.8525 -53.0434 -51.9288 
-52.3299 -53.923 -56.6648 -56.6769 -55.5522 -57.2626 -47.6576 -48.8415 -48.2595 
-48.8667 -46.941 -58.4173 -56.9436 -58.7181 -56.3873 -55.6744 -56.1643 -47.8901 
-48.8375 -49.7948 -46.6185 -49.75 -46.9837 -56.9349 -55.7949 -57.179 -56.9324 
-54.3756 -54.2703 -57.004 -50.3379 -53.9086 -59.1718 -61.1474 -60.7251 -61.5079 
-60.4369 -50.6499 -52.9587 -50.8265 -55.1451 -55.5831 -54.0702 -50.325 -52.1494 
-53.0395 -52.9818 -55.3878 -46.1722 -46.5983 -45.7174 -45.9562 -54.0498 -56.8878 
-50.6902 -57.1351 -56.5005 -53.7336 -52.4133 -57.5633 -59.9314 -56.1443 -56.6481 
-55.1824 -56.6221 -56.8683 -54.9105 -46.8337 -46.6635 -46.1715 -46.8665 -48.4041 
-47.6104 -47.6119 -47.8888 -45.9555 -46.092 -46.9989 -53.7109 -60.1636 -53.0733 
-53.7026 -53.3533 -54.7107 -47.8131 -54.4556 -54.6126 -54.7825 -54.5274 -55.0965 
-55.0392 -49.6176 -53.7607 -45.9878 -46.846 -45.7435 -45.882 -46.0599 -50.3623 
-46.3697 -49.5858 -50.7004 -48.5718 -47.2374 -46.0139 -46.0897 -48.5051 -46.1227 
-46.6629 -45.8007 -45.8315 -46.24 -46.5889 -45.852 -49.8736 -47.3192 -53.4182 
-55.2142 -46.9404 -50.8242 -52.6221 -46.6847 -60.0705 -54.0533 -52.5753 -46.1861 
-46.6379 -46.3709 -51.2653 -54.2158 -52.8995 -46.3758 -53.3287 -54.4315 -57.5669 
-55.4601 -57.2124 -57.0907 -56.7945 -47.907 -46.0472 -46.0897 -46.0175 -48.552 
-46.4292 -46.7364 -46.1791 -46.4715 -52.2271 -56.9037 -56.6125 -56.8332 -57.0262 
-54.3913 -53.8788 -55.0792 -46.843 -47.7032 -49.0132 -47.5372 -47.8185 -46.7604 
-48.6227 -46.4777 -52.6795 -52.931 -51.6776 -53.2376 -55.6666 -53.6823 -50.3784 
-53.0245 -45.9751 -52.4956 -46.867 -47.1543 -49.0346 -48.0943 -47.1472 -49.0417 
-52.4182 -57.3762 -45.8447 -64.7824 -47.062 -57.7628 -56.5191 -57.8518 -58.3229 
-58.0485 -58.7712 -58.0666 -58.1663 -57.6604 -51.3713 -57.437 -54.8792 -53.4304 
-52.3892 -51.7618 -50.9078 -50.8763 -51.6008 -50.7468 -65.087 -67.7647 -63.3867 
-56.9855 -47.2534 -56.3412 -48.1942 -71.638 -68.6879 -62.7035 -46.9705 -52.2879 
-52.7852 -46.749 -50.4025 -51.2693 -52.1356 -65.2534 -64.6898 -74.6738 -65.3998 
-67.4902 -69.031 -56.2844 -63.6086 -60.4863 -55.8058 -56.935 -55.2388 -56.986 
-46.8071 -52.164 -51.6313 -56.4689 -56.1406 -52.7219 -53.7416 -55.6182 -56.9453 
-57.3954 -54.1584 -57.2125 -53.9165 -78.578 -47.6813 -47.6298 -46.5002 -46.9978 
-47.9904 -59.9396 -58.2487 -54.0875 -54.8466 -49.9738 -51.9231 -52.7736 -56.4682 
-54.2108 -56.3344 -53.0314 -58.5206 -56.5163 -51.8276 -52.0163 -55.9048 -55.8303 
-56.9935 -55.101 -56.8731 -56.7485 -55.6329 -57.5686 -56.858 -46.2425 -51.2415 
-46.2625 -49.5622 -46.0319 -46.4656 -49.3281 -57.1882 -56.7024 -54.9478 -49.7696 
-46.7173 -46.1702 -49.5013 -47.1044 -46.7416 -50.0681 -47.8016 -48.8099 -46.0618 
-46.5137 -54.8973 -57.1421 -57.2234 -55.0264 -56.4948 -57.0279 -53.7183 -56.8383 
-54.7009 -86.6531 -46.3159 -45.4833 -45.8559 -45.7123 -45.9267 -45.6229 -81.6628 
-80.0783 -69.5376 -77.6709 -88.8639 -57.9236 -86.9419 -50.3114 -54.968 -51.1769 
-53.5513 -56.7256 -50.0837 -54.518 -48.3519 -46.8273 -46.5285 -46.3482 -52.4145 
-53.0465 -46.3919 -54.1427 -52.3674 -50.9433 -65.2521 -58.1324 -57.8329 -52.6478 
-54.2009 -65.3699 -76.2324 -81.7233 -57.1225 -60.1955 -53.6986 -57.1757 -57.4701 
-57.5162 -65.4173 -60.8088 -57.1139 -56.0471 -53.9566 -45.7943 -45.7028 -50.2333 
-49.1245 -50.6259 -55.8554 -47.1558 -47.5685 -50.5164 -52.0339 -48.9366 -47.9456 
-47.1152 -45.8993 -52.7544 -55.6027 -55.5108 -52.8822 -46.5193 -54.0918 -53.7889 
-52.5114 -52.4999 -52.9602 -53.7603 -59.8185 -59.9431 -58.9018 -59.6246 -57.6066 
-55.2185 -53.6648 -57.2426 -53.5556 -51.2115 -54.0179 -56.3066 -52.0844 -54.2671 
-61.9897 -57.0461 -65.109 -56.8241 -58.1544 -55.7902 -55.1444 -50.1661 -52.2978 
-50.4585 -65.7414 -54.1773 -50.2189 -51.553 -50.4987 -51.7512 -55.3486 -51.683 
-49.6227 -51.2304 -50.8145 -46.8937 -51.328 -49.3363 -70.7416 -81.3879 -79.7581 
-65.7705 -71.1578 -56.12 -50.769 -55.5572 -55.8028 -56.5719 -50.6132 -55.4275 
-53.746 -48.517 -46.9543 -47.9732 -46.4036 -47.8233 -47.1527 -53.5975 -57.8872 
-58.3792 -58.7303 -57.3455 -58.5682 -57.0391 -50.2818 -49.3401 -47.7445 -47.2582 
-46.1907 -46.8134 -46.9638 -51.5071 -49.6899 -56.8056 -51.3659 -50.743 -46.6193 
-51.3948 -50.5612 -49.4695 -47.4964 -50.6006 -50.4165 -45.9418 -46.0941 -57.241 
-69.4609 -68.4727 -72.5846 -90.2718 -85.0761 -45.9629 -50.9496 -48.0481 -46.5531 
-46.3473 -49.3348 -48.8572 -51.3436 -52.3037 -51.7864 -52.4768 -52.2829 -52.0952 
-53.7901 -59.2121 -61.6832 -49.5243 -50.7976 -74.5189 -49.8012 -49.8893 -50.9165 
-53.2998 -47.8624 -53.8357 -51.6815 -46.9186 -48.4369 -49.9142 -47.8753 -47.8873 
-53.5917 -50.5254 -51.7361 -48.7391 -48.1176 -48.2247 -50.3311 -50.0049 -49.2988 
-49.178 -48.2517 -50.6061 -48.2579 -52.1164 -51.7329 -52.5265 -53.0541 -52.3406 
-52.2373 -52.8915 -53.3794 -52.6139 -53.9251 -53.6848 -57.8494 -71.2836 -62.2529 
-63.3281 -66.3232 -73.535 -72.9013 -76.5221 -46.35 -47.9014 -47.8619 -47.6597 
-46.4603 -46.4509 -46.1428 -45.7746 -46.0827 -45.7346 -45.7075 -45.9791 -45.9927 
-48.206 -52.6861 -53.0191 -52.3888 -47.1991 -49.3062 -48.9378 -47.7103 -48.1839 
-50.6391 -45.8534 -54.7949 -54.2156 -53.9135 -54.6372 -54.2173 -53.9152 -49.2871 
-49.8721 -49.4632 -46.9753 -48.4648 -47.0135 -47.0709 -49.1848 -46.9281 -47.5312 
-46.4015 -46.1934 -47.0678 -46.343 -46.3467 -53.7627 -57.97 -49.1689 -54.8996 
-54.7311 -59.405 -63.179 -58.63 -72.1166 -57.9368 -71.0482 -52.63 -54.5437 
-55.7179 -56.6404 -56.0025 -51.1644 -57.538 -49.5491 -50.6526 -50.2523 -48.0907 
-53.6451 -46.7966 -48.1187 -50.6657 -45.7783 -47.4818 -45.9722 -53.2732 -53.5449 
-52.8053 -53.5932 -54.1885 -54.1419 -54.5504 -54.597 -50.9537 -53.0074 -51.5961 
-56.8838 -46.1391 -54.3943 -51.625 -56.2243 -61.7619 -51.3238 -56.1035 -55.0768 
-49.3487 -48.7329 -53.2898 -48.0963 -48.3398 -48.8006 -50.1027 -57.6088 -50.8498 
-50.1537 -51.1786 -58.5935 -48.7046 -47.0243 -51.5759 -47.6681 -48.6144 -54.6102 
-55.6328 -55.1392 -54.3543 -56.1408 -52.8669 -51.6612 -50.2776 -55.6366 -81.3556 
-74.9879 -76.5867 -67.8421 -64.3613 -56.6741 -79.1992 -72.7961 -71.5392 -69.588 
-68.3311 -58.234 -60.1067 -58.9429 -48.6861 -64.653 -83.208 -66.4777 -51.5773 
-51.1363 -51.8019 -52.123 -51.5725 -51.2407 -51.9025 -52.1361 -47.0257 -46.0254 
-46.6745 -46.6079 -47.0304 -46.7185 -46.9451 -46.714 -45.9515 -46.8057 -47.0936 
-46.9314 -51.9847 -51.5879 -50.8639 -46.0176 -46.2411 -48.8627 -46.858 -45.7295 
-53.1674 -48.8253 -51.958 -52.1394 -54.5913 -57.8897 -61.42 -56.0642 -54.1562 
-52.2517 -46.6364 -52.4032 -51.8736 -49.6268 -50.8589 -51.9372 -58.1968 -58.1737 
-47.1351 -46.5613 -46.1058 -46.9332 -46.6881 -46.6211 -60.6491 -52.5971 -54.0733 
-54.1311 -46.6962 -53.7744 -53.8075 -54.6293 -54.8409 -53.2272 -53.2346 -54.5723 
-56.6722 -52.8193 -54.8515 -52.4046 -56.0067 -57.017 -50.2885 -48.36 -45.8195 
-57.7214 -56.1528 -55.985 -56.5219 -57.0694 -57.1509 -56.278 -56.7352 -46.7259 
-47.4199 -46.4803 -47.8017 -47.777 -46.5406 -46.6781 -46.9795 -46.3617 -47.5616 
-46.0598 -47.871 -45.9215 -46.8822 -46.6798 -58.263 -57.8382 -56.8306 -56.8662 
-57.0892 -55.7507 -56.7912 -56.7121 -45.8938 -49.2889 -49.8426 -57.8915 -56.5785 
-58.424 -48.3382 -48.9085 -48.4902 -50.4604 -49.6395 -49.4451 -50.266 -51.9867 
-51.8102 -52.4941 -52.6386 -46.1411 -51.2327 -45.9943 -50.5465 -52.7167 -58.1695 
-58.3767 -58.2286 -57.9676 -57.8433 -58.2178 -58.0813 -57.6268 -57.2593 -57.4101 
-46.4929 -47.5944 -47.265 -49.8572 -49.0449 -45.9215 -45.8863 -45.9415 -45.9857 
-45.827 -46.5335 -45.8816 -46.5237 -46.0873 -55.3798 -55.0244 -55.4605 -55.1932 
-55.8519 -55.4746 -56.0344 -51.7303 -47.0413 -55.2275 -53.3316 -54.6871 -53.4774 
-54.6864 -54.6158 -55.2883 -55.5786 -54.4356 -46.526 -46.5136 -46.032 -45.7983 
-46.7927 -46.5664 -46.0318 -45.6511 -54.5155 -54.3105 -56.1696 -55.2651 -55.8348 
-54.829 -56.3165 -57.5421 -57.6082 -57.6096 -57.6882 -57.4024 -57.662 -57.3762 
-50.0943 -48.6209 -50.2552 -49.1211 -47.5362 -46.7951 -47.0562 -46.3404 -47.041 
-46.2283 -53.6583 -53.705 -55.782 -55.8055 -58.1988 -53.396 -56.2734 -57.1723 
-57.27 -50.373 -48.4108 -46.9364 -46.2873 -46.8016 -55.5288 -55.1212 -54.9004 
-52.913 -54.09 -54.7574 -51.0291 -54.6295 -56.4937 -56.8803 -56.2166 -56.1285 
-59.2585 -65.4341 -57.5963 -56.8156 -63.0248 -46.5723 -49.6859 -46.6134 -46.1022 
-46.2383 -46.5703 -46.3897 -46.4214 -47.1103 -46.1481 -53.2218 -73.0757 -52.5603 
-53.8152 -54.3832 -53.1634 -54.111 -55.0679 -57.0564 -54.7025 -54.0332 -54.9539 
-54.5428 -90.491 -86.1239 -79.5027 -86.2286 -80.8478 -92.9989 -89.7316 -71.4309 
-75.1119 -53.9995 -56.5345 -53.9016 -53.5567 -53.4557 -52.9909 -52.4511 -50.8916 
-51.9418 -50.0383 -51.863 -53.2757 -52.1797 -49.6893 -57.1254 -66.1407 -47.9808 
-47.5016 -47.6476 -47.3835 -49.7758 -49.3151 -49.466 -50.1463 -50.0106 -46.1367 
-45.9036 -46.0555 -46.0938 -46.5072 -46.0442 -46.9991 -57.3443 -52.9337 -53.4775 
-53.4772 -55.244 -49.6109 -53.1187 -53.6084 -49.7325 -89.7419 -47.5504 -51.6131 
-50.2272 -59.3961 -52.8379 -60.401 -64.5717 -56.7766 -57.4248 -58.2416 -54.5092 
-49.7554 -55.2964 -46.6695 -46.2659 -46.8876 -46.8589 -56.2505 -53.4372 -56.7585 
-45.8612 -56.6944 -57.3168 -55.7845 -46.8667 -46.6652 -46.9108 -49.839 -46.2302 
-53.7916 -53.4168 -53.1008 -52.3229 -52.8212 -52.6944 -53.538 -61.6714 -47.1281 
-50.9399 -48.8403 -49.292 -56.0298 -48.0047 -55.0818 -55.4548 -55.1813 -56.0903 
-55.2778 -55.4613 -54.9645 -54.9993 -48.7966 -48.6196 -53.7097 -49.0727 -53.3417 
-46.9236 -47.08 -47.7327 -47.0021 -47.2231 -46.2279 -47.1609 -46.2606 -46.8066 
-47.1337 -56.0581 -54.2885 -56.214 -56.3615 -57.8025 -55.8889 -55.676 -56.1815 
-54.344 -54.4979 -53.2043 -57.4706 -57.6233 -46.0363 -50.5117 -50.4449 -52.6959 
-45.8899 -51.0034 -62.7326 -53.4437 -52.4955 -54.3202 -47.1297 -52.7009 -53.8677 
-54.3976 -54.1847 -61.1484 -56.0065 -58.0604 -52.3027 -55.3278 -54.1449 -72.6048 
-74.6611 -74.8531 -72.6465 -68.0407 -70.3005 -54.8802 -61.2736 -53.0481 -75.7764 
-62.4177 -61.5078 -49.2554 -45.7927 -52.4114 -54.9238 -54.4803 -52.2553 -57.0549 
-53.5743 -54.2363 -55.6013 -56.0647 -57.2372 -58.3284 -56.4923 -61.4345 -58.4459 
-46.6968 -46.7221 -46.3808 -46.3339 -46.4774 -48.7934 -46.1405 -46.3661 -47.1261 
-47.0553 -48.0133 -49.8237 -55.167 -59.0676 -58.9 -57.5424 -52.3608 -57.2443 
-59.9913 -47.5417 -46.1693 -46.0656 -46.1834 -47.0662 -48.6736 -46.4723 -46.2335 
-53.0822 -55.8566 -55.4585 -55.0164 -55.9467 -53.67 -56.501 -52.9013 -65.4924 
-64.2334 -66.1672 -64.7263 -68.4169 -68.1977 -70.1066 -70.6522 -45.6756 -51.7761 
-50.7735 -52.34 -51.7552 -47.4564 -47.0449 -47.2899 -47.1665 -46.2076 -92.2585 
-79.9627 -93.0159 -82.8315 -71.1962 -68.6725 -76.8934 -74.3698 -69.5774 -62.2974 
-64.768 -49.9628 -65.1499 -65.612 -72.2742 -77.8944 -66.1568 -69.6699 -70.2813 
-56.72 -52.6916 -46.2399 -46.2631 -47.5242 -52.6899 -54.4703 -53.0282 -54.8233 
-56.812 -54.8017 -46.0562 -45.8854 -46.2058 -53.6863 -53.9807 -52.52 -50.4313 
-51.9667 -56.8526 -54.2433 -51.3706 -53.9131 -56.9856 -57.1569 -56.4248 -57.6544 
-57.2962 -57.7122 -57.0913 -57.7753 -58.0466 -54.4616 -54.6076 -55.2439 -55.0695 
-55.7349 -55.8061 -56.8544 -57.2341 -57.1502 -58.0535 -55.392 -56.8864 -56.8119 
-52.8171 -56.6001 -50.8462 -58.8061 -47.2269 -55.5275 -54.6306 -60.6977 -56.3961 
-54.0539 -52.7939 -57.9021 -58.1188 -89.005 -88.1 -56.911 -95.2252 -46.5812 
-46.2123 -46.4548 -46.3125 -46.4976 -57.2515 -57.3651 -56.8443 -57.9388 -56.9015 
-56.883 -54.4918 -56.7311 -51.1972 -53.7931 -52.1378 -51.5501 -53.0576 -52.628 
-69.714 -59.7488 -57.1374 -60.4683 -53.7791 -52.6911 -52.8596 -52.4777 -52.1874 
-52.2096 -48.3434 -53.8489 -51.6243 -49.0007 -69.8215 -46.1578 -46.8379 -47.2196 
-46.4158 -47.1879 -47.2205 -46.9772 -55.5371 -55.4463 -55.7233 -55.883 -56.242 
-46.0763 -88.5199 -47.8596 -49.5324 -48.6591 -55.0532 -54.7146 -54.0461 -52.3873 
-56.6819 -54.9522 -56.7171 -54.2044 -55.9029 -54.964 -55.537 -53.9404 -53.871 
-55.1992 -47.437 -47.144 -46.8928 -47.5202 -54.4127 -54.1401 -55.3506 -55.1416 
-52.1169 -56.2977 -46.9178 -46.5156 -47.1035 -46.8696 -46.3532 -46.2733 -47.0266 
-63.6916 -59.88 -63.9514 -56.9297 -65.8805 -61.334 -62.9014 -52.0006 -56.6272 
-48.5019 -55.531 -56.0422 -55.1477 -52.9536 -56.827 -50.4251 -57.7824 -56.8582 
-57.4285 -57.351 -57.0764 -56.5546 -46.3939 -47.4085 -46.8784 -46.9574 -46.2755 
-47.5868 -46.7563 -46.8333 -48.0724 -55.282 -51.5112 -50.9498 -47.0962 -47.3601 
-47.5039 -48.3687 -46.4381 -46.1906 -46.5034 -48.7577 -47.7182 -52.7928 -53.7601 
-54.8518 -55.0153 -92.5449 -52.8363 -52.6281 -51.2546 -47.2988 -46.6812 -46.4288 
-47.1291 -47.6644 -47.8695 -54.2687 -54.3395 -52.8168 -55.1627 -53.8533 -55.2076 
-56.338 -55.025 -67.3881 -47.2015 -46.0229 -47.3754 -52.0353 -53.2364 -49.2439 
-53.1726 -57.3216 -55.0794 -52.6916 -53.563 -53.1365 -54.9713 -55.008 -55.2582 
-54.9946 -55.2284 -55.2791 -48.1822 -47.0118 -46.1501 -54.7047 -45.8508 -66.4571 
-74.6385 -70.1402 -75.6798 -68.2568 -73.0719 -70.8102 -67.7504 -52.5928 -52.2323 
-52.4852 -52.0755 -52.3284 -68.2061 -63.9984 -65.4691 -53.5984 -52.8682 -53.4161 
-58.1046 -63.4307 -57.0011 -50.3824 -50.8487 -47.3295 -46.0395 -46.9093 -47.8988 
-46.4269 -46.4169 -53.275 -49.3512 -46.1728 -47.3203 -57.5038 -57.2018 -57.8467 
-57.5447 -58.067 -57.9017 -57.6042 -57.1811 -52.33 -47.5486 -46.9093 -52.3047 
-53.7136 -49.9851 -48.9764 -47.9124 -46.3682 -49.1413 -50.0432 -46.6863 -49.6665 
-58.0124 -48.0016 -50.2587 -55.4842 -51.5426 -53.7862 -60.3494 -46.6439 -47.4077 
-46.1013 -46.196 -46.3038 -46.9542 -46.0083 -47.0749 -51.252 -64.0665 -61.1366 
-56.1154 -59.0913 -77.6334 -76.2794 -71.1302 -61.5165 -72.4444 -109.611 -54.834 
-55.9501 -54.8146 -54.7284 -54.5177 -48.4384 -54.1348 -50.0245 -78.2871 -50.5121 
-50.4311 -50.1649 -53.4734 -54.8811 -55.6475 -53.4938 -53.3691 -52.7411 -46.9798 
-49.3757 -49.1455 -46.2474 -52.0761 -50.4358 -51.349 -46.5159 -46.7202 -46.3353 
-53.8566 -92.4324 -55.3295 -50.5247 -50.6749 -57.498 -57.0038 -57.0355 -56.7378 
-56.6098 -57.5113 -57.364 -55.1506 -51.0027 -51.1117 -50.7846 -52.5495 -46.5484 
-47.6236 -49.6715 -54.1931 -56.7423 -57.4535 -56.5621 -56.8511 -56.1975 -56.2149 
-57.5625 -56.121 -51.3967 -46.9231 -53.047 -50.4101 -46.8104 -50.5844 -61.4006 
-62.9691 -61.3002 -63.8381 -60.496 -63.9892 -65.9443 -53.0928 -56.6951 -54.958 
-48.4098 -55.6011 -54.8525 -55.0331 -54.7817 -46.1061 -49.6512 -46.8702 -46.3742 
-47.4489 -46.037 -46.0225 -53.5105 -47.0238 -55.9862 -47.9749 -50.3074 -49.7996 
-57.8711 -56.1329 -56.2055 -53.3684 -56.8917 -55.1 -49.6874 -49.5678 -48.167 
-48.8843 -48.0449 -49.7562 -53.0713 -57.1358 -57.2612 -57.2867 -56.7788 -56.3329 
-55.4759 -56.0294 -49.3777 -47.8296 -52.9209 -49.9269 -49.049 -48.8582 -48.4172 
-48.09 -62.0903 -60.8404 -63.3228 -59.5865 -45.9798 -52.9492 -46.147 -46.0279 
-48.5203 -63.2484 -61.8487 -60.7184 -56.061 -62.0484 -62.985 -58.5283 -55.2059 
-54.9552 -73.5067 -55.9715 -53.1894 -51.5736 -54.8981 -54.7306 -49.848 -51.9351 
-53.2034 -56.4651 -51.7792 -57.2209 -53.8534 -52.7712 -54.7939 -53.027 -54.5287 
-50.3305 -50.6765 -46.7193 -46.4657 -49.7977 -46.4568 -48.6107 -47.0822 -53.6489 
-55.1643 -47.1495 -48.053 -46.3397 -48.9959 -46.0016 -55.8703 -53.9174 -55.8795 
-55.7886 -55.9815 -56.287 -56.8853 -57.4296 -57.2741 -57.2233 -57.1728 -57.1904 
-56.6033 -57.7444 -57.8858 -56.7727 -46.1102 -48.5658 -47.7119 -47.7169 -47.0521 
-49.8192 -49.4921 -46.6714 -48.6055 -51.1128 -51.5823 -52.4489 -52.7709 -51.5594 
-46.2686 -46.4015 -46.1808 -47.8168 -46.7393 -51.3066 -50.7137 -51.0367 -50.1987 
-46.3297 -50.6076 -46.0655 -51.1449 -51.5272 -51.8818 -47.6175 -52.6814 -53.1422 
-56.927 -57.0728 -56.7221 -57.5986 -54.0004 -45.5026 -45.6712 -47.2329 -50.5397 
-49.7279 -63.4882 -62.0212 -63.7869 -63.8261 -60.2785 -57.2322 -56.7908 -56.1795 
-46.8104 -53.8384 -54.6654 -49.2472 -49.8943 -50.0791 -52.2273 -51.3292 -46.2092 
-46.3138 -46.5689 -46.9589 -46.106 -46.4036 -47.6352 -47.1255 -49.7232 -46.4531 
-46.9246 -46.2932 -46.5307 -46.4503 -53.9526 -51.1307 -48.3746 -51.0619 -52.9605 
-78.1905 -48.8887 -51.1615 -50.9675 -56.551 -55.5334 -56.3785 -54.0403 -53.7869 
-97.93 -49.4799 -46.269 -46.4575 -46.6089 -46.4204 -55.9297 -56.6639 -57.4545 
-57.6776 -45.149 -56.8571 -49.3139 -46.5819 -46.4305 -47.5774 -49.2067 -55.7983 
-55.7653 -55.9861 -56.0292 -47.0099 -46.6563 -46.0132 -47.0797 -46.4919 -47.7673 
-47.5911 -50.3114 -46.4537 -90.3226 -51.4218 -50.59 -46.4807 -55.1792 -55.2374 
-55.2993 -55.069 -54.7141 -46.8364 -60.0959 -46.2105 -46.201 -46.0591 -46.5154 
-79.6539 -46.2553 -45.6544 -46.5715 -45.4301 -45.7857 -45.9332 -46.185 -47.399 
-46.951 -46.4953 -56.8713 -45.3992 -65.8577 -56.8016 -56.857 -56.0984 -56.6386 
-56.8482 -57.0386 -56.683 -56.9969 -57.583 -52.3432 -50.8272 -49.6043 -54.2675 
-48.997 -48.3555 -48.2787 -47.9164 -46.9632 -47.0177 -47.0649 -46.2988 -46.9104 
-46.8362 -47.3648 -47.6485 -47.7682 -47.4454 -48.8186 -50.9085 -50.8278 -51.363 
-51.867 -53.7528 -52.579 -55.0325 -53.4407 -53.861 -55.0778 -46.146 -47.0701 
-46.2402 -46.0809 -46.3146 -47.4921 -46.9897 -47.0657 -46.0683 -46.2288 -48.2806 
-49.577 -46.9262 -48.3016 -46.1616 -46.7758 -46.8884 -48.8955 -47.854 -46.9121 
-46.2733 -46.3168 -46.8174 -46.9103 -53.8969 -54.1675 -50.2159 -49.7875 -47.4662 
-48.0808 -46.9285 -46.0184 -46.8427 -46.3259 -47.1208 -59.0033 -55.3214 -54.1273 
-45.9908 -46.7457 -47.7018 -47.1014 -46.5534 -46.0815 -47.2218 -47.6835 -46.3848 
-57.4135 -56.3466 -57.2542 -57.5122 -79.4578 -54.046 -58.3826 -56.872 -58.2048 
-56.6206 -47.3659 -54.0127 -51.2913 -50.7002 -48.9139 -50.0373 -49.2943 -46.0419 
-46.2625 -46.1521 -69.0394 -68.4995 -54.9921 -56.8034 -56.9177 -63.7516 -57.0271 
-58.623 -55.7385 -52.6559 -50.1192 -47.5584 -48.5297 -47.8309 -48.9487 -46.6118 
-46.7688 -49.3921 -48.993 -47.546 -48.8809 -49.1733 -49.4472 -48.174 -49.2539 
-53.4892 -50.9787 -50.8271 -57.4443 -48.5576 -55.7375 -47.7914 -52.5476 -53.6656 
-51.0123 -46.7806 -54.4295 -47.0783 -50.331 -62.3585 -47.583 -47.9673 -48.694 
-46.7865 -50.2818 -54.0584 -54.9774 -50.7393 -49.0153 -51.361 -57.9852 -57.6891 
-56.9388 -57.0768 -57.5486 -47.9928 -48.6402 -47.677 -46.5991 -47.1085 -48.3621 
-46.7462 -56.0209 -54.6417 -64.6669 -53.9227 -53.5292 -49.9998 -46.8775 -46.8385 
-50.1024 -46.3031 -46.0073 -46.5187 -46.386 -46.3936 -46.793 -46.6079 -46.3589 
-46.6193 -45.9824 -46.3888 -51.0327 -47.7807 -46.0376 -45.7281 -46.862 -56.1691 
-46.2276 -57.0006 -57.0476 -53.947 -57.5691 -63.205 -60.073 -64.2313 -65.2015 
-65.3983 -70.9882 -69.1291 -58.2792 -55.3748 -54.5245 -52.0473 -51.6601 -51.4267 
-51.4823 -52.0932 -56.744 -56.5725 -57.3015 -56.0996 -52.8329 -57.0469 -57.9603 
-58.3911 -58.09 -57.927 -58.1177 -58.3463 -58.2974 -58.2273 -58.5329 -55.279 
-55.2116 -55.4081 -55.1434 -55.0843 -55.3961 -55.4356 -46.4481 -48.0089 -48.1127 
-47.2518 -46.302 -46.6395 -46.3436 -46.6278 -46.6132 -49.8113 -49.0005 -49.0076 
-49.4646 -49.4717 -55.4699 -54.8599 -57.8474 -55.839 -54.5208 -54.2779 -47.1022 
-51.6823 -52.3269 -46.8336 -47.1586 -50.1698 -47.8876 -58.5427 -58.5783 -58.6356 
-58.8493 -58.6219 -59.0273 -58.412 -55.2155 -55.0634 -54.6101 -54.2551 -54.715 
-54.4011 -54.8784 -59.1041 -52.2871 -49.9878 -51.7134 -48.3689 -48.1254 -50.4582 
-79.2323 -69.6253 -69.4475 -72.2437 -62.9066 -60.4808 -67.0243 -72.3337 -64.4042 
-62.0777 -65.3955 -49.8503 -49.6003 -49.5905 -50.1763 -51.3452 -49.2851 -48.5122 
-48.8176 -48.6686 -48.5437 -47.9359 -47.8216 -47.5755 -45.873 -90.9774 -47.7221 
-46.4712 -46.4202 -48.5529 -47.4507 -46.2415 -46.2849 -49.0801 -46.5931 -47.1427 
-46.0947 -47.4988 -55.6966 -57.3215 -57.1584 -56.1408 -49.8932 -55.7047 -46.6013 
-46.2956 -51.9087 -47.2316 -48.0161 -50.8213 -57.621 -53.4757 -55.2919 -51.7914 
-55.5058 -55.0858 -56.1885 -53.8545 -53.8931 -52.4037 -51.2871 -54.1556 -54.166 
-52.2948 -50.0714 -74.2729 -91.5995 -45.8973 -64.6904 -68.3293 -68.6776 -76.6694 
-78.99 -56.2695 -56.7477 -56.534 -56.3636 -56.518 -55.0929 -56.0458 -55.133 
-54.4647 -53.7064 -51.2688 -54.1398 -53.8171 -55.5608 -53.159 -57.9983 -55.1874 
-54.2999 -54.9923 -52.1046 -53.1741 -52.8681 -52.7937 -46.2777 -52.1807 -52.4833 
-52.8256 -55.967 -61.6885 -62.0807 -46.2569 -47.5653 -67.6497 -46.3149 -67.1098 
-47.982 -51.4525 -52.1138 -46.8202 -53.9872 -46.4657 -47.1261 -47.7519 -47.2813 
-47.0171 -47.2295 -46.7529 -46.4524 -46.8199 -47.6216 -82.2742 -46.3013 -46.769 
-80.9825 -78.502 -85.2642 -83.2942 -76.9615 -52.9441 -52.0119 -53.3968 -51.1076 
-64.9046 -49.6377 -52.0973 -46.3012 -49.8726 -49.1725 -54.5402 -54.4728 -45.7048 
-46.9382 -49.285 -47.2857 -46.4066 -47.7132 -47.2864 -48.8413 -47.2427 -48.6414 
-47.6269 -49.0065 -51.6611 -53.4608 -53.718 -54.961 -54.4518 -54.1947 -55.1665 
-55.4191 -52.7495 -53.1973 -53.7242 -54.2456 -53.1259 -54.991 -54.1963 -50.351 
-50.8112 -51.667 -53.3432 -52.2421 -51.9443 -51.8558 -51.7247 -50.8475 -51.2377 
-49.27 -50.3663 -60.9254 -45.0267 -44.5498 -61.5379 -65.6074 -64.511 -60.4415 
-82.9721 -50.9669 -60.4086 -48.5811 -49.5588 -53.2792 -47.0297 -46.2357 -47.0701 
-46.7939 -47.5314 -54.7158 -56.6567 -56.3178 -49.5146 -54.4821 -54.9369 -56.767 
-49.7754 -67.5177 -65.1483 -69.4632 -76.0946 -75.7102 -61.7883 -74.1445 -49.3454 
-45.4117 -46.8147 -45.582 -45.5077 -46.5727 -46.4722 -46.0519 -45.366 -46.5079 
-50.3506 -72.9476 -75.3486 -84.9037 -71.8394 -78.3337 -80.073 -77.9887 -81.1939 
-81.4327 -86.66 -46.5641 -47.4093 -47.6267 -47.8743 -47.6569 -47.9863 -46.594 
-51.1516 -50.3281 -51.6645 -48.6175 -52.854 -53.0105 -45.897 -52.1249 -51.7456 
-53.5321 -52.453 -53.9738 -54.1601 -54.0515 -57.7481 -56.755 -57.4622 -57.3262 
-57.5001 -46.3555 -81.9774 -80.6858 -49.2532 -49.2395 -49.4305 -47.6859 -47.6077 
-49.7253 -48.1261 -47.9982 -51.3781 -51.3007 -50.9466 -83.3952 -46.4222 -96.3 
-47.1552 -50.4833 -49.7205 -49.8244 -48.9186 -48.151 -48.9126 -50.4552 -86.8213 
-82.4924 -79.2606 -77.7795 -83.9736 -64.312 -59.9518 -72.1141 -74.3862 -67.4188 
-74.2393 -55.8177 -55.4838 -54.7816 -56.706 -58.0241 -51.9264 -51.7529 -52.944 
-53.2154 -46.8154 -45.9444 -50.4081 -48.6124 -45.7855 -45.9858 -58.6755 -58.2318 
-58.5969 -58.6561 -58.6882 -58.4244 -58.4274 -49.7727 -47.4104 -48.8622 -51.7251 
-47.377 -55.55 -56.1302 -53.9853 -54.258 -54.5088 -56.1439 -53.8411 -57.3415 
-57.6678 -54.6178 -55.5631 -57.1046 -54.0576 -51.9968 -57.7558 -56.6362 -58.7664 
-58.9945 -61.8232 -47.2213 -45.796 -81.0238 -58.9127 -56.1466 -62.3597 -58.2436 
-56.1373 -68.0941 -50.5414 -46.5191 -46.1876 -46.0525 -47.2743 -66.4632 -47.043 
-46.545 -46.6173 -46.4851 -49.4561 -48.3357 -50.1042 -49.9286 -49.3337 -55.9466 
-48.5402 -49.2349 -46.361 -47.3719 -50.1903 -49.5985 -47.198 -47.077 -47.483 
-57.7284 -58.6952 -57.6906 -58.721 -57.8828 -58.3651 -57.8569 -58.0733 -56.4296 
-56.9451 -56.2239 -57.8714 -57.6734 -57.3267 -56.3732 -50.2236 -52.1695 -50.3242 
-50.234 -46.2245 -46.3651 -54.9798 -55.0163 -55.1063 -55.7177 -55.5626 -55.4446 
-54.888 -50.579 -51.5917 -53.3909 -51.637 -54.4043 -53.9993 -48.9266 -49.0756 
-48.8069 -49.0707 -51.2886 -91.6213 -46.4639 -49.5338 -49.5444 -48.8315 -47.2247 
-49.5946 -47.977 -47.5547 -47.4175 -47.7613 -49.5917 -46.9113 -47.343 -54.3584 
-47.0329 -48.7256 -46.2948 -47.0736 -50.0997 -57.1022 -57.1761 -51.963 -46.3904 
-48.3635 -52.8389 -57.0363 -46.8484 -52.8679 -51.4591 -46.6529 -46.2047 -46.2598 
-68.2673 -46.9171 -46.6241 -46.7748 -93.1928 -59.0696 -89.6897 -53.7779 -55.0461 
-54.7544 -53.8569 -54.3378 -53.8947 -54.1153 -50.3883 -54.2318 -49.0845 -48.8183 
-55.7036 -56.5675 -47.8624 -45.7118 -50.6801 -49.1598 -50.8761 -48.6319 -47.9746 
-55.2189 -55.8281 -55.0746 -54.9758 -55.4477 -55.3912 -55.5904 -52.6945 -59.3875 
-56.0776 -56.0772 -55.7252 -56.0221 -51.0194 -51.7294 -46.3012 -46.754 -47.7367 
-46.4269 -56.6901 -46.9801 -53.1536 -51.0927 -52.5401 -52.939 -53.9114 -54.6697 
-55.4497 -79.1331 -98.6282 -91.9527 -46.3823 -46.8725 -46.2725 -46.7535 -46.4603 
-47.8487 -47.2501 -46.7672 -45.8619 -45.9859 -46.0542 -54.3549 -54.9344 -54.5631 
-54.3479 -58.5737 -58.4801 -59.2445 -60.994 -53.2427 -54.6269 -52.8834 -50.692 
-52.0921 -54.7756 -53.83 -65.4926 -73.6188 -71.2639 -66.4149 -63.5001 -96.6181 
-57.0344 -56.0922 -56.1717 -56.0419 -52.4911 -52.5424 -53.1654 -52.6222 -53.1488 
-47.2109 -58.6209 -51.8021 -57.4945 -53.4317 -50.4942 -101.625 -53.8502 -47.0566 
-52.4926 -54.2415 -46.3046 -46.8767 -47.2944 -54.3398 -47.4515 -47.6518 -46.8064 
-47.0531 -57.6374 -57.5595 -57.3754 -57.7812 -47.1795 -47.8697 -46.9483 -46.2223 
-46.9589 -46.0905 -46.2902 -46.4781 -46.6402 -46.5774 -48.0421 -55.9068 -53.9246 
-79.4764 -45.9393 -46.8748 -46.893 -48.5867 -47.3633 -59.3162 -46.0592 -48.5517 
-45.799 -49.2564 -45.9172 -45.6812 -45.4589 -46.8227 -57.0263 -47.1227 -57.0423 
-46.7781 -48.1351 -54.2435 -57.134 -54.5841 -56.9204 -57.9411 -46.4032 -46.8471 
-48.1383 -48.1335 -46.3749 -46.2369 -46.0841 -46.2221 -46.9681 -96.4764 -46.4438 
-54.0475 -46.3167 -49.673 -46.2316 -51.1141 -47.7057 -46.496 -46.2316 -49.1077 
-50.6195 -57.2918 -46.666 -48.395 -46.3096 -49.4026 -52.4364 -52.0859 -50.8038 
-53.7635 -54.0853 -54.8098 -52.556 -57.336 -57.1754 -56.384 -55.6188 -55.4448 
-54.422 -55.4871 -54.1592 -54.7027 -76.5745 -73.3773 -76.6527 -54.8251 -56.2831 
-57.5833 -54.8009 -59.5376 -56.4152 -52.2701 -49.9074 -46.0574 -43.5773 -45.0161 
-45.1354 -45.6113 -46.163 -47.0429 -47.8146 -45.6368 -47.144 -47.6693 -47.5506 
-49.8434 -49.2168 -46.1013 -79.6362 -79.5487 -58.4926 -49.7824 -50.2669 -48.5563 
-48.2706 -46.818 -50.7453 -51.1255 -49.4376 -58.1675 -52.4852 -48.7639 -47.5066 
-47.8157 -48.3485 -48.0311 -48.3353 -49.3978 -48.8846 -48.8078 -49.3632 -98.4606 
-48.8043 -52.2344 -52.5356 -51.4174 -50.5 -54.1791 -54.8449 -54.6026 -54.9112 
-54.3888 -46.6875 -46.7749 -46.8081 -47.0489 -46.9816 -53.8072 -50.7551 -50.7308 
-50.6651 -50.4048 -50.4947 -72.5466 -49.0347 -57.3078 -57.2637 -47.0029 -49.0883 
-48.9286 -49.8127 -46.3987 -48.181 -74.9244 -73.7087 -65.6451 -55.1593 -56.2183 
-72.4933 -66.1818 -70.3122 -69.0461 -73.1766 -53.0601 -56.0224 -53.2433 -55.5847 
-55.0681 -45.3435 -57.8745 -45.4906 -52.2532 -51.6846 -52.2678 -49.3044 -47.1917 
-51.0571 -48.7366 -46.3237 -46.1676 -57.7731 -57.0661 -57.3693 -57.1854 -56.7693 
-45.6851 -57.2634 -58.3962 -58.1828 -56.4862 -52.6452 -53.8875 -52.937 -50.5764 
-49.7351 -104.161 -56.3383 -55.5405 -53.9908 -55.7597 -46.8722 -53.5536 -53.0775 
-52.1664 -55.2902 -53.7855 -54.4754 -53.2639 -54.389 -46.8923 -47.0931 -47.1996 
-46.9988 -51.6599 -49.786 -51.9711 -56.3742 -52.1492 -55.6084 -55.8034 -55.8335 
-56.5489 -56.6141 -57.2275 -54.1977 -54.2875 -55.8244 -55.8693 -48.7432 -55.7276 
-54.4233 -60.3065 -81.7223 -46.2771 -46.5553 -46.2023 -46.0838 -53.118 -52.8943 
-53.0636 -48.6619 -50.9135 -53.8419 -54.5146 -93.2411 -84.1032 -59.4565 -52.7836 
-58.9051 -59.6175 -63.2921 -64.7389 -61.5889 -51.7085 -45.9868 -49.8127 -55.8171 
-52.9959 -52.2304 -49.2486 -47.8722 -50.2782 -46.8826 -47.2859 -53.0372 -48.6615 
-53.7155 -46.8328 -55.2689 -55.7474 -55.7401 -55.8171 -46.9909 -46.9816 -46.2062 
-46.6758 -46.583 -46.7542 -47.3791 -53.9241 -57.297 -57.4237 -57.0095 -57.328 
-57.3178 -58.5267 -57.524 -72.8748 -76.7547 -68.8983 -67.1616 -67.5634 -61.0644 
-64.1788 -59.5134 -59.9672 -59.8194 -60.4319 -60.5798 -71.5754 -52.4477 -88.7572 
-87.5492 -76.3258 -74.1912 -76.0291 -93.5502 -60.1738 -60.3083 -79.456 -74.3892 
-92.6411 -55.6124 -56.2096 -57.3057 -55.635 -55.5644 -99.6548 -50.7987 -50.7027 
-49.8445 -49.4403 -54.2167 -52.8043 -55.456 -53.5526 -56.871 -48.601 -50.2146 
-57.989 -60.4021 -58.5713 -58.3358 -46.8474 -49.9397 -46.8654 -48.5603 -56.7459 
-47.7205 -56.8471 -55.0872 -55.9162 -56.3823 -56.613 -47.5725 -53.6662 -56.8968 
-57.1443 -57.0871 -57.1829 -57.609 -57.2604 -47.7581 -46.2951 -49.2088 -47.0099 
-51.575 -53.8122 -46.8696 -48.2942 -46.2077 -47.0491 -49.7506 -46.3327 -46.4679 
-47.4173 -47.2202 -47.1319 -48.2647 -50.3208 -46.2953 -46.2921 -45.9714 -46.3383 
-91.9623 -46.1212 -55.2375 -51.2284 -49.6621 -47.9275 -51.3726 -78.3727 -75.3826 
-53.0763 -53.0781 -56.7939 -53.8359 -54.2925 -53.5564 -54.4755 -55.2117 -58.2532 
-58.2909 -58.5981 -89.484 -56.4624 -45.7082 -54.7159 -57.8786 -58.2461 -61.62 
-61.1388 -64.1214 -62.9706 -66.6314 -62.3598 -56.1181 -56.4209 -56.3632 -54.472 
-56.9421 -49.858 -49.5897 -49.9592 -47.371 -54.281 -53.0104 -57.3301 -52.0296 
-50.7903 -58.4844 -46.0533 -58.2092 -91.1061 -77.9472 -90.2141 -87.3254 -53.6979 
-86.6048 -56.0353 -55.5945 -54.4795 -53.014 -47.2717 -47.8791 -50.8483 -55.5738 
-55.9113 -56.3265 -57.295 -55.9978 -57.1376 -55.8204 -96.5361 -95.4891 -92.3705 
-60.8613 -57.293 -56.9793 -56.8759 -57.165 -57.3381 -57.9473 -56.9153 -57.1861 
-57.164 -57.4959 -56.188 -47.378 -47.1906 -104.609 -52.1926 -96.722 -46.3401 
-51.7553 -49.2365 -54.6076 -46.5975 -48.5694 -47.2921 -47.5739 -47.5018 -48.2876 
-46.6608 -69.8924 -71.2247 -77.7519 -77.2096 -76.4196 -79.0468 -82.8076 -56.3981 
-54.8109 -58.2493 -58.1558 -45.2372 -46.4396 -45.7513 -45.7508 -46.9932 -46.272 
-58.1902 -57.2956 -65.9038 -64.9399 -57.2205 -54.0144 -53.9975 -52.8895 -53.4531 
-53.1665 -46.2575 -54.1887 -67.4532 -46.7497 -47.3842 -49.8787 -46.8892 -52.3587 
-49.0365 -47.7884 -54.7372 -55.6202 -70.5771 -56.9834 -56.4181 -46.42 -51.8408 
-54.2365 -53.853 -54.372 -53.8436 -54.9897 -45.6971 -53.9538 -52.8736 -52.7046 
-54.5679 -56.0945 -46.2327 -55.8981 -48.3574 -48.8673 -54.1748 -50.1236 -66.9024 
-61.8029 -63.5892 -60.9524 -45.8011 -53.4807 -54.2072 -95.088 -58.0914 -57.884 
-58.8792 -58.8024 -58.4498 -58.5564 -57.6397 -54.637 -54.5261 -55.2839 -57.6065 
-58.3146 -48.8278 -53.3602 -50.8565 -46.9341 -50.4747 -51.3179 -50.6265 -58.3122 
-48.6954 -48.5312 -58.4194 -53.3412 -52.2158 -53.7439 -48.2771 -48.681 -48.9862 
-56.4815 -54.3581 -47.305 -49.6329 -48.4289 -49.4845 -50.0455 -86.9535 -48.6871 
-49.1836 -49.1741 -50.075 -49.3352 -45.983 -93.0448 -46.6964 -58.1553 -46.9776 
-46.261 -48.8116 -46.5421 -55.523 -52.3371 -55.302 -54.3611 -52.234 -53.6603 
-54.4295 -50.2386 -49.197 -48.0485 -53.0774 -57.0615 -48.5854 -56.5632 -52.472 
-53.2362 -53.1482 -52.5673 -85.9531 -89.3784 -88.7528 -68.3724 -64.4764 -64.9593 
-78.4098 -84.5229 -74.6887 -76.9872 -87.5053 -82.0405 -92.6688 -87.2041 -95.5481 
-61.5352 -62.6527 -59.8351 -60.689 -59.4426 -58.7974 -56.1515 -62.5123 -62.3588 
-57.8771 -58.7907 -46.8361 -46.0956 -45.3614 -46.0928 -45.1803 -45.1715 -45.9537 
-91.5067 -46.0132 -46.0806 -46.2508 -87.442 -46.0031 -46.1747 -46.1751 -46.01 
-46.8135 -46.6484 -46.6362 -47.0381 -92.2586 -83.6664 -80.6327 -88.0169 -87.6751 
-91.4155 -48.0179 -54.2345 -56.0459 -56.924 -54.7074 -54.119 -58.8396 -56.5667 
-54.7588 -53.5355 -53.7033 -53.2562 -53.424 -56.5353 -57.3767 -56.1961 -56.9631 
-57.5587 -54.1617 -92.0742 -54.7659 -50.8582 -52.1277 -48.6481 -48.2304 -47.4862 
-47.9038 -50.1488 -47.0096 -46.909 -46.7588 -46.1403 -46.2738 -46.8844 -48.2468 
-46.4622 -74.2631 -46.5492 -48.1532 -46.4275 -58.1216 -83.2325 -56.7628 -57.8846 
-53.0489 -58.0653 -58.2647 -57.3803 -91.9352 -91.9298 -88.4809 -46.2286 -76.9408 
-79.9163 -54.2222 -53.983 -53.7681 -54.2007 -55.5603 -54.1616 -53.7268 -54.3772 
-54.0695 -55.0289 -53.118 -79.4626 -46.8884 -46.161 -46.3377 -45.9094 -46.0489 
-57.9044 -56.1918 -56.9326 -56.915 -49.8032 -49.8894 -50.3955 -49.3584 -46.0937 
-46.489 -59.2875 -58.6232 -89.753 -55.7661 -57.1882 -57.0896 -51.8246 -47.4336 
-48.4771 -49.7885 -48.1119 -46.9995 -47.2834 -47.7206 -47.2135 -48.4523 -46.6087 
-51.9039 -47.2576 -47.5415 -47.0106 -46.8069 -95.8841 -46.7284 -55.4793 -56.0551 
-53.2258 -51.4326 -51.2101 -53.3697 -52.9752 -50.4634 -60.9963 -67.0798 -68.0438 
-56.6829 -48.4413 -48.6074 -49.719 -48.956 -48.5123 -49.2291 -48.5296 -48.2253 
-60.4338 -66.6623 -62.6746 -60.1434 -66.599 -69.0519 -71.7234 -55.0097 -55.0472 
-54.6233 -55.4519 -46.6912 -49.2937 -46.88 -50.185 -48.6038 -59.4783 -48.8155 
-49.0205 -50.928 -52.3449 -44.0533 -51.0705 -51.9757 -50.0331 -51.6541 -48.0676 
-51.8652 -62.709 -47.9831 -90.3537 -49.8124 -54.3333 -46.9234 -50.966 -51.4213 
-55.7018 -90.0315 -46.8322 -46.2529 -49.9745 -47.0462 -49.7289 -50.5115 -46.801 
-52.5898 -47.4081 -50.9173 -49.2962 -55.5388 -83.7725 -47.2046 -47.8126 -47.9674 
-53.1762 -53.1724 -53.2974 -53.322 -53.447 -47.4563 -67.0824 -58.1646 -57.6728 
-58.1334 -58.8286 -58.9564 -59.1508 -58.9909 -59.1187 -50.6274 -56.7309 -47.1571 
-47.1693 -44.1172 -85.1922 -57.844 -57.6064 -56.8524 -80.65 -105.918 -56.6164 
-47.1479 -49.7878 -48.5426 -47.3803 -48.49 -48.8353 -47.0987 -47.0345 -48.8936 
-50.8526 -55.5905 -57.1044 -51.3687 -56.3991 -55.8563 -54.7295 -55.6015 -51.5295 
-55.6681 -50.2938 -59.9949 -89.8388 -87.5302 -85.9042 -82.1503 -71.9188 -54.9887 
-56.2788 -56.8489 -56.0562 -56.7196 -55.7672 -55.5551 -58.8654 -58.5453 -58.5532 
-64.1239 -94.7384 -79.7983 -63.0164 -59.7182 -55.418 -56.5482 -57.79 -56.0779 
-57.3407 -55.5451 -56.5596 -52.3134 -54.319 -54.4544 -54.2402 -53.9928 -46.5346 
-46.1644 -46.3123 -47.027 -52.2253 -46.9743 -49.4192 -46.9097 -52.4899 -46.7576 
-47.4656 -49.5503 -57.3777 -50.7935 -80.7607 -79.3844 -84.6086 -92.8607 -79.7565 
-74.6941 -85.1973 -54.7834 -48.8497 -56.4213 -58.6952 -56.555 -55.946 -57.3094 
-57.4167 -54.5896 -52.8792 -60.9335 -61.4787 -61.7502 -63.9176 -45.2956 -53.1214 
-53.0489 -55.8667 -56.3127 -52.2941 -53.0043 -55.7324 -54.8949 -55.3546 -56.7479 
-54.508 -45.7024 -45.936 -45.6824 -46.171 -51.693 -46.2141 -46.1856 -56.7765 
-57.949 -56.6967 -54.0598 -57.1902 -57.4742 -56.4737 -56.4224 -68.5432 -66.3271 
-65.7816 -74.6149 -65.2234 -76.5368 -67.0256 -65.5304 -48.6076 -48.2889 -46.3399 
-48.3973 -46.8125 -47.7313 -50.0467 -53.673 -53.2857 -56.2502 -55.6457 -56.8527 
-55.2546 -50.7684 -54.458 -50.0788 -52.9347 -66.2857 -66.4703 -62.2292 -54.4561 
-47.3464 -47.067 -46.8718 -46.9701 -55.9782 -57.8666 -58.071 -56.0774 -54.0373 
-47.9457 -47.9462 -52.0912 -47.1038 -49.2953 -46.8819 -49.7346 -56.8001 -59.1844 
-59.9772 -58.5795 -66.1577 -54.2383 -55.9498 -54.154 -51.5517 -46.0204 -49.4368 
-45.8747 -45.5819 -45.596 -45.8551 -47.4967 -47.8299 -76.9255 -46.782 -79.9176 
-48.6842 -54.5814 -53.4583 -51.138 -49.7735 -58.4372 -56.3504 -56.6162 -59.2071 
-59.0163 -58.8902 -56.3616 -56.5158 -56.6883 -49.2431 -47.6234 -46.7586 -46.1423 
-46.6852 -45.7301 -46.1021 -46.9793 -51.5984 -43.9878 -54.5324 -55.0408 -53.9666 
-82.8478 -53.0609 -83.2335 -46.4791 -46.6022 -46.376 -48.0768 -47.2741 -45.8773 
-46.7696 -46.6655 -46.2403 -46.3174 -46.3029 -46.4651 -57.5786 -56.0383 -55.644 
-93.7224 -59.0332 -56.5145 -51.9186 -50.687 -52.0339 -56.7566 -56.2617 -54.4164 
-50.809 -51.4339 -52.6072 -46.9968 -51.2097 -46.688 -46.4916 -51.135 -57.5985 
-58.1356 -58.1172 -47.112 -46.5491 -46.7854 -46.926 -55.07 -89.3194 -57.8957 
-55.7803 -47.3448 -89.6452 -62.2254 -55.9626 -47.3992 -63.3196 -54.3435 -49.8645 
-61.652 -58.8365 -48.2282 -48.4439 -48.9533 -48.7313 -48.0063 -56.1521 -55.2003 
-54.4571 -56.1446 -55.9593 -56.1402 -47.4296 -47.3661 -51.3376 -47.1095 -45.8495 
-46.1083 -47.1931 -46.6658 -46.945 -46.6769 -46.9261 -48.1858 -47.0411 -52.7642 
-53.9636 -46.5118 -47.8384 -56.1417 -53.7696 -48.3252 -48.0406 -54.5499 -55.3746 
-55.4487 -45.9768 -47.3495 -47.627 -46.7482 -88.378 -45.9518 -47.1736 -46.0882 
-47.2119 -55.3443 -55.2891 -55.0736 -55.0964 -55.4275 -47.6601 -53.5198 -47.3859 
-51.5667 -50.4988 -49.9085 -59.8924 -106.125 -103.112 -102.376 -48.2434 -45.6129 
-55.156 -49.8317 -50.0878 -92.2606 -51.6314 -48.1768 -47.0927 -54.6638 -54.3049 
-46.1103 -54.0947 -45.8311 -45.901 -81.9293 -44.7888 -46.1964 -51.6785 -55.7201 
-46.3522 -57.9137 -52.3318 -52.6328 -53.6921 -48.1221 -51.0218 -52.2906 -57.9666 
-55.6575 -57.9441 -56.2334 -90.7827 -57.8957 -49.9841 -54.6433 -49.1639 -55.1389 
-53.0987 -57.7071 -58.1976 -58.0766 -58.0842 -58.3435 -58.2807 -58.54 -57.8108 
-58.1658 -58.2377 -51.9355 -54.5161 -54.6812 -54.4385 -54.5362 -45.7982 -45.9591 
-45.983 -46.1439 -54.8543 -55.1864 -54.1306 -53.5175 -54.833 -55.0055 -54.9037 
-54.8686 -54.6154 -47.399 -48.3265 -51.6232 -48.4251 -48.2724 -49.4391 -47.7513 
-61.1547 -60.6681 -46.305 -56.8761 -59.366 -70.0273 -73.365 -64.1779 -70.7419 
-71.8104 -46.8982 -47.2807 -47.6017 -46.199 -46.1914 -52.1502 -49.924 -53.6356 
-49.5418 -51.7319 -91.0676 -51.6338 -48.6514 -47.1607 -55.0822 -54.9659 -55.0834 
-54.9292 -55.0849 -55.22 -55.01 -81.496 -79.9811 -53.7931 -53.072 -52.1457 
-52.4246 -56.5313 -57.796 -55.9229 -53.1116 -55.9779 -64.5949 -85.7879 -85.3194 
-65.8649 -66.7082 -66.3003 -56.3647 -56.3109 -48.96 -48.9942 -50.0681 -48.9065 
-47.5495 -52.1099 -47.8168 -48.76 -46.2755 -46.6279 -46.4258 -46.5346 -48.0386 
-48.0924 -44.1497 -54.3404 -48.1437 -46.1707 -46.4307 -46.2286 -46.0787 -52.7023 
-52.8648 -52.8933 -52.7797 -52.5309 -66.4686 -68.7159 -75.7475 -84.3153 -70.1137 
-83.1759 -75.9381 -84.3123 -88.4809 -51.2792 -47.8015 -49.1172 -56.305 -51.5134 
-48.6097 -46.9373 -46.7296 -48.1377 -49.0574 -47.1877 -101.798 -48.7977 -48.6237 
-47.0636 -47.95 -47.6563 -54.0496 -53.2831 -54.1602 -56.5568 -53.6145 -57.2757 
-56.6844 -56.3482 -51.87 -58.6038 -51.7725 -56.5742 -56.9656 -57.2104 -58.6018 
-58.9433 -58.6636 -58.9917 -50.7764 -62.2211 -65.6014 -64.5313 -64.6248 -65.8725 
-50.013 -50.4909 -47.7126 -53.8379 -47.6694 -47.431 -70.3074 -50.7286 -74.126 
-55.5419 -56.9908 -54.8616 -56.1332 -48.9816 -45.9896 -46.1284 -50.2683 -52.7266 
-57.2661 -49.651 -47.0112 -59.0335 -50.8671 -48.6022 -48.8699 -47.816 -46.8772 
-48.7101 -47.3246 -46.711 -52.6691 -47.031 -50.7729 -49.8689 -46.7958 -47.0234 
-50.2867 -49.2764 -47.0147 -71.1965 -73.2328 -70.4043 -78.3601 -77.2211 -78.4641 
-77.1092 -82.4802 -90.6887 -76.0322 -57.8368 -57.7226 -58.0267 -57.7406 -54.6199 
-54.6739 -57.3433 -55.7787 -57.0404 -49.5953 -50.7854 -49.6431 -47.7189 -49.8115 
-53.4528 -63.7419 -53.9362 -57.7274 -48.5128 -50.5042 -46.2296 -48.6936 -47.7802 
-49.0773 -85.7993 -46.9874 -48.1364 -49.4463 -49.884 -51.5745 -91.1966 -51.9233 
-90.241 -93.1686 -56.3889 -47.1375 -46.2276 -46.2579 -83.6136 -57.7909 -55.8586 
-59.3041 -56.4206 -54.9548 -57.2007 -46.4472 -46.6826 -47.0767 -46.8175 -46.8953 
-47.1141 -43.9566 -47.8911 -86.5959 -50.6173 -48.4459 -45.9875 -90.2504 -81.0257 
-81.4192 -57.2832 -56.7226 -51.0494 -52.2553 -54.5316 -56.2071 -53.0735 -53.51 
-54.2955 -51.6231 -52.7404 -52.9924 -52.2053 -50.6217 -54.2969 -55.1175 -46.2395 
-54.0737 -55.6123 -51.5055 -53.0101 -53.2863 -46.0573 -45.9973 -86.9865 -80.4367 
-49.5554 -54.4612 -55.3242 -76.3581 -79.9501 -55.9296 -54.7549 -55.9557 -56.3043 
-47.0459 -83.7475 -44.4277 -46.8398 -58.4451 -54.3371 -72.8765 -69.6674 -69.3692 
-69.3639 -69.0657 -80.3155 -71.4674 -68.0315 -49.7163 -49.5864 -49.4169 -49.287 
-52.0963 -53.032 -55.1677 -54.1892 -55.709 -56.0804 -57.285 -53.2401 -52.049 
-50.5321 -52.745 -50.9485 -45.787 -67.5088 -62.8177 -53.2773 -62.5706 -73.3092 
-47.426 -48.5357 -48.1503 -47.3613 -46.3075 -47.793 -54.4157 -51.4503 -56.205 
-54.219 -55.6883 -55.2355 -85.8086 -81.8709 -87.0227 -84.3963 -56.6189 -51.7747 
-60.7347 -57.3477 -55.296 -57.8959 -61.6695 -63.0958 -47.3967 -59.6006 -64.1413 
-58.6818 -55.3689 -54.8592 -54.7377 -47.1369 -46.7459 -45.9106 -46.0991 -46.3269 
-47.009 -86.5035 -46.5599 -46.364 -84.9964 -55.0899 -49.6455 -50.1314 -57.2335 
-56.8476 -56.7332 -56.4225 -56.4269 -56.3125 -92.2716 -94.1761 -100.021 -88.8463 
-49.1862 -49.5653 -45.9054 -50.1847 -48.4689 -50.6585 -48.706 -46.4231 -55.9156 
-45.3871 -45.4584 -46.3261 -46.1248 -58.3833 -58.499 -61.9028 -62.2424 -65.1313 
-46.2306 -57.3886 -46.1974 -46.2992 -51.5361 -80.5858 -46.1199 -48.1278 -103.441 
-64.8136 -75.7669 -77.3701 -80.7137 -49.9409 -50.1673 -49.7915 -49.5651 -49.014 
-48.7808 -47.2897 -46.9302 -46.7248 -48.8263 -47.8775 -69.1431 -64.1524 -62.3977 
-60.4151 -56.7895 -58.0046 -51.0565 -48.045 -49.2253 -46.21 -46.3748 -58.3264 
-58.3719 -56.8871 -56.0956 -82.6051 -50.0482 -60.2178 -53.2732 -83.9337 -55.713 
-51.0045 -55.589 -55.5164 -55.4252 -47.2508 -90.6124 -96.1264 -46.9255 -47.7172 
-55.3747 -48.027 -50.5165 -54.878 -52.2883 -52.6049 -52.9131 -55.6879 -46.1548 
-46.7609 -53.3218 -43.6942 -50.6089 -49.6458 -49.5144 -59.3717 -44.5624 -81.3502 
-57.2859 -52.9152 -51.762 -85.1951 -47.8962 -48.0144 -56.5512 -49.1566 -44.2642 
-44.2124 -81.6381 -50.2939 -51.0662 -50.6168 -59.1051 -58.1561 -58.4948 -56.9728 
-56.3427 -53.9976 -56.0441 -57.7532 -51.1141 -60.3456 -61.0648 -61.5817 -60.7334 
-54.7998 -60.2391 -59.4433 -58.1707 -57.086 -59.0163 -55.6747 -53.6225 -58.5586 
-58.7414 -58.6458 -46.7053 -55.4025 -55.4565 -55.5082 -47.2095 -46.6052 -47.3127 
-54.1989 -54.7144 -57.2729 -56.1259 -93.8289 -45.2864 -56.1981 -78.8567 -57.6354 
-54.3449 -46.4239 -52.9755 -56.5119 -57.7411 -51.5195 -61.1119 -52.067 -51.9026 
-50.0822 -49.4147 -51.6374 -51.2971 -81.72 -51.0337 -93.6804 -57.6636 -64.9754 
-53.7103 -63.4961 -53.531 -60.834 -46.5662 -48.6508 -48.851 -52.8592 -54.5489 
-72.4591 -47.3434 -46.7541 -46.1577 -46.9214 -46.5848 -102.636 -98.3676 -73.3811 
-50.1988 -45.973 -50.7748 -47.4268 -47.7184 -58.0645 -57.377 -57.0706 -49.7029 
-50.063 -49.3274 -50.2433 -56.0905 -56.3209 -56.5182 -56.5562 -56.4218 -56.4598 
-45.9913 -46.1017 -46.3629 -57.9213 -93.2094 -56.872 -51.0045 -54.3964 -55.4046 
-56.5997 -53.5225 -47.8272 -50.0442 -53.8734 -53.5012 -89.1565 -47.2797 -54.1465 
-51.5276 -55.8692 -55.7487 -55.8296 -55.2748 -55.0583 -55.1144 -55.1525 -57.181 
-56.2184 -55.6431 -55.0736 -57.1871 -57.4294 -69.287 -71.0246 -72.1142 -87.0555 
-86.0848 -79.069 -81.3018 -58.9024 -77.5963 -74.281 -99.9846 -94.8172 -92.0333 
-84.243 -91.9788 -102.91 -99.8023 -47.4442 -47.0844 -48.4481 -50.6119 -50.7803 
-73.9832 -48.0133 -46.9706 -85.5329 -49.6604 -47.4631 -44.0794 -47.0498 -48.2586 
-43.9456 -50.4108 -52.6813 -53.815 -52.6309 -53.272 -51.6719 -51.76 -44.2626 
-46.2053 -47.1691 -43.9988 -43.8338 -93.3992 -61.3142 -61.1797 -59.2599 -58.6604 
-59.0185 -43.8946 -47.8082 -46.8291 -58.8095 -46.8957 -58.9917 -64.9675 -66.6794 
-66.6409 -65.1675 -51.4644 -53.8242 -53.3956 -90.321 -52.6252 -52.4047 -50.8035 
-52.3926 -52.9846 -50.961 -53.2107 -52.8528 -58.7199 -60.1415 -59.5468 -59.3717 
-48.3401 -59.7732 -47.8933 -47.6278 -46.9161 -47.1555 -46.9491 -47.1885 -47.1187 
-77.0147 -79.7427 -73.911 -64.5852 -71.6293 -74.3971 -49.4927 -44.5498 -52.1687 
-53.1397 -51.3599 -53.2376 -54.7596 -55.4168 -56.6693 -50.5388 -54.4945 -54.0311 
-52.9466 -53.6361 -51.1394 -52.0403 -60.2665 -67.4517 -46.2189 -46.0427 -48.0708 
-46.5486 -46.8061 -49.066 -57.3748 -57.3656 -46.7081 -46.6578 -49.6636 -49.2235 
-49.6961 -48.4507 -54.8611 -54.5371 -54.2755 -54.5771 -54.4752 -54.7038 -54.6539 
-79.3841 -53.0835 -56.4214 -54.3523 -60.7659 -60.4973 -65.9518 -70.1574 -64.1829 
-68.3885 -61.437 -64.0472 -56.9961 -57.5395 -85.7114 -78.1373 -47.7102 -47.5768 
-47.824 -47.3125 -47.7773 -48.6613 -48.5958 -82.5031 -47.2322 -48.0517 -52.283 
-50.9355 -52.7202 -53.3421 -53.2033 -46.3616 -54.2246 -52.5917 -52.106 -52.4164 
-52.4625 -52.1744 -60.3065 -59.0252 -59.3885 -55.8709 -52.7795 -52.8986 -53.1295 
-55.3779 -54.757 -46.559 -50.3504 -55.4048 -47.2242 -47.2557 -48.1305 -47.8299 
-46.1427 -46.0187 -47.1555 -46.6398 -46.813 -54.2947 -46.0193 -48.528 -58.5148 
-51.3565 -48.5446 -48.6129 -48.8768 -48.5684 -48.3045 -45.9968 -46.1543 -45.4151 
-49.932 -89.7879 -60.3946 -57.3738 -53.6502 -53.5634 -56.284 -54.7892 -79.7682 
-73.1706 -82.9308 -53.1828 -54.8678 -52.5356 -54.3423 -55.8825 -70.9402 -69.8977 
-74.1043 -67.0147 -96.3569 -66.8478 -64.4443 -51.3061 -45.755 -46.8625 -48.2781 
-47.2505 -60.5696 -60.9186 -60.5448 -59.1062 -59.4801 -67.1047 -64.5189 -79.0914 
-82.0094 -69.2617 -65.022 -57.4853 -59.7309 -83.2621 -49.3915 -52.3207 -92.5782 
-53.883 -81.4514 -56.581 -63.2149 -55.3488 -55.924 -56.3284 -57.468 -90.4643 
-75.7231 -52.2645 -49.0282 -51.4789 -47.228 -45.9376 -46.1039 -46.1261 -46.2923 
-55.1404 -57.4773 -54.3038 -47.6793 -61.365 -45.0152 -47.8226 -46.4987 -47.9496 
-48.1434 -47.8487 -51.3657 -55.2815 -65.6415 -64.3485 -64.4449 -59.3027 -62.5003 
-59.0076 -61.1052 -61.7257 -49.084 -72.5351 -49.9132 -49.1342 -50.123 -49.6234 
-49.5978 -47.643 -44.3594 -51.6772 -71.6223 -57.0183 -77.4423 -47.1443 -50.0587 
-47.9233 -47.7148 -48.4121 -48.7039 -48.644 -46.7291 -64.1805 -47.1924 -102.194 
-50.7875 -50.6207 -50.9417 -97.0694 -50.8984 -93.081 -49.203 -55.1648 -52.3541 
-54.1293 -53.5095 -51.3481 -43.9621 -55.3848 -45.7853 -49.7187 -51.367 -56.3524 
-46.2699 -48.4932 -95.2755 -62.3726 -58.0246 -55.3515 -60.7858 -65.8295 -49.0708 
-46.6402 -46.7204 -56.5031 -55.5088 -54.139 -49.3319 -52.5797 -50.6446 -54.2952 
-49.5532 -45.5324 -50.4907 -49.138 -47.4738 -50.799 -55.7331 -48.5125 -52.7537 
-54.5219 -54.574 -54.724 -54.6719 -54.8554 -46.2307 -46.8551 -48.7966 -47.0927 
-100.929 -47.6519 -60.2379 -45.9953 -81.7883 -46.0971 -46.2588 -63.583 -47.4417 
-47.4509 -48.8073 -49.2036 -58.4406 -47.2411 -87.1848 -46.8537 -48.7511 -48.6907 
-51.2246 -53.5268 -56.0463 -44.0975 -84.1745 -78.8206 -56.2544 -56.9604 -55.4819 
-48.7987 -47.7954 -89.9687 -50.2782 -47.3515 -47.3859 -46.0999 -47.1674 -47.5408 
-48.0854 -46.8999 -48.0218 -48.9472 -53.0291 -53.2363 -51.308 -47.7475 -92.9131 
-48.7096 -49.7515 -49.2406 -46.5225 -46.657 -47.6467 -47.1946 -47.4234 -46.8227 
-47.0313 -46.7485 -46.691 -46.665 -49.0123 -49.3122 -98.2446 -47.069 -86.5412 
-56.5357 -56.4106 -50.3325 -94.5644 -56.8993 -51.8558 -45.6508 -45.8071 -45.9585 
-47.1116 -48.5954 -47.7266 -48.2849 -51.625 -50.9365 -58.9079 -56.2416 -48.7374 
-48.833 -54.7029 -56.3671 -55.7744 -52.3976 -52.2585 -45.2535 -50.6147 -46.1707 
-49.7272 -47.7286 -51.0817 -82.6732 -54.2519 -55.226 -47.651 -47.8087 -50.7473 
-48.98 -49.5129 -49.4522 -49.1377 -51.8829 -48.5614 -48.3785 -55.8416 -58.2118 
-56.7894 -81.4007 -80.8157 -58.2126 -56.9852 -57.2378 -58.437 -75.6046 -51.8409 
-53.0721 -55.9362 -89.2047 -54.6882 -56.664 -47.4102 -56.663 -57.0519 -50.9668 
-48.4644 -46.7511 -46.8692 -50.7272 -52.04 -48.5173 -47.457 -48.5774 -50.4639 
-51.6212 -52.5019 -52.3135 -47.0149 -50.8353 -50.7198 -72.5513 -58.6357 -53.0484 
-51.2612 -46.1239 -49.2241 -52.0325 -52.0892 -49.4392 -51.6729 -51.7424 -51.5458 
-48.2548 -51.1456 -52.6202 -52.0576 -55.4187 -54.8219 -49.8038 -56.3029 -54.7703 
-47.7382 -55.9216 -58.03 -53.2384 -48.6354 -55.2649 -55.339 -50.6318 -57.7407 
-60.2325 -48.1474 -51.4556 -60.1019 -56.1846 -54.7628 -51.1971 -54.1549 -53.8447 
-56.5483 -57.5793 -56.7323 -55.0253 -53.7534 -44.7378 -52.1328 -53.6584 -47.8144 
-57.0033 -56.0044 -51.346 -56.5037 -46.5781 -46.2598 -44.1657 -54.2306 -48.7144 
-46.4615 -66.4553 -56.0685 -66.9733 -52.9203 -63.1603 -62.8482 -67.5946 -70.5186 
-75.7927 -54.3194 -49.6846 -65.8598 -51.7397 -56.7813 -49.7625 -49.8833 -57.031 
-46.5275 -47.6741 -45.4473 -49.8963 -58.479 -59.1321 -54.8902 -55.7173 -56.3271 
-56.752 -54.7384 -49.4721 -63.4581 -60.5757 -53.0792 -60.4574 -57.0278 -86.0522 
-49.4489 -47.0641 -47.5753 -57.7104 -53.6051 -56.1588 -55.4293 -53.5415 -57.8265 
-56.8224 -82.3541 -53.4829 -51.0064 -52.9771 -52.0385 -53.4118 -52.463 -97.4619 
-53.5108 -46.4753 -47.1255 -66.9134 -67.1333 -48.7003 -46.6398 -47.8359 -47.7532 
-47.2129 -47.244 -50.3177 -49.1382 -57.6293 -60.9779 -57.7367 -60.1758 -55.079 
-57.8277 -49.3277 -52.3165 -51.6584 -53.0942 -52.3877 -49.4286 -48.9754 -51.9986 
-49.4245 -50.0218 -48.5871 -74.3475 -47.0449 -102.126 -51.8767 -68.8906 -72.1344 
-61.4595 -61.1691 -52.2595 -52.5595 -46.7236 -50.4805 -56.0284 -49.5929 -47.9867 
-79.4859 -54.2325 -72.4749 -83.1451 -53.6912 -48.5986 -48.0809 -44.4053 -48.7857 
-52.3841 -51.719 -48.0896 -54.1261 -53.8404 -54.4396 -54.2764 -53.1914 -52.8202 
-48.1093 -46.1091 -55.9918 -61.1915 -61.9896 -60.1599 -64.9743 -62.6423 -90.4783 
-56.1836 -55.6593 -64.1811 -65.1385 -62.8352 -61.2516 -62.6768 -55.5041 -49.2991 
-56.2742 -55.0928 -56.997 -56.5717 -52.45 -53.0834 -55.182 -50.7916 -49.7273 
-52.5376 -51.8745 -52.0786 -52.1278 -52.2264 -51.8018 -53.0468 -51.8176 -96.817 
-43.9838 -55.0711 -48.1803 -53.0347 -51.2127 -71.1017 -57.9474 -75.9258 -59.3965 
-55.9414 -56.6454 -61.5634 -57.9047 -56.9648 -57.0436 -58.611 -58.3249 -43.7983 
-46.7049 -48.0986 -46.9256 -78.0762 -88.1693 -86.6485 -46.8407 -50.5147 -49.3345 
-90.7737 -51.9812 -52.6142 -50.5549 -50.49 -112.246 -53.679 -47.8949 -48.7214 
-104.386 -99.2536 -91.2581 -46.1994 -71.8187 -76.9624 -77.1054 -71.7598 -69.4129 
-52.7556 -54.8718 -55.5988 -47.5357 -57.9492 -53.6958 -53.2059 -53.7468 -51.9184 
-53.7168 -53.3518 -63.2422 -48.0795 -46.2518 -47.6926 -47.2848 -47.5192 -90.987 
-86.0188 -49.9874 -51.6101 -53.3093 -52.1041 -51.9013 -43.3906 -49.0889 -45.0199 
-52.0552 -50.3309 -47.3044 -51.2238 -58.9254 -50.4535 -58.9599 -54.4156 -56.9279 
-48.1648 -44.8129 -49.4529 -53.3923 -55.4756 -52.2189 -51.6174 -90.0833 -51.5522 
-52.3787 -50.1747 -44.7144 -46.267 -52.2257 -53.0229 -46.1085 -55.1259 -53.7669 
-49.694 -52.2161 -50.4065 -47.4748 -51.1253 -55.8585 -51.2557 -55.6169 -82.123 
-55.5257 -56.1941 -55.9753 -55.8128 -53.1192 -58.1051 -66.2211 -51.991 -53.8822 
-48.1683 -47.3395 -48.8645 -53.6452 -52.5946 -48.1488 -50.147 -50.8249 -46.0065 
-83.6825 -47.2553 -51.1644 -48.4414 -49.6683 -90.1262 -52.114 -51.4927 -83.4928 
-46.6156 -47.1519 -47.5116 -48.4631 -48.9212 -49.9184 -49.9712 -48.1718 -50.089 
-48.013 -51.2188 -58.1353 -64.6711 -48.9566 -50.596 -51.0971 -54.3885 -49.2095 
-56.198 -52.9799 -56.7 -57.406 -56.1329 -50.9215 -57.2303 -56.7533 -56.1958 
-56.6039 -54.8503 -46.8259 -46.2035 -46.4055 -46.2194 -53.8471 -54.1772 -47.2084 
-46.8422 -46.7509 -48.7928 -47.1527 -46.7317 -55.7877 -85.1501 -81.3265 -60.0618 
-85.0655 -56.9039 -46.4108 -54.764 -56.1384 -46.2665 -46.1145 -49.2812 -46.466 
-46.545 -51.0438 -57.1104 -81.9987 -84.0196 -49.7057 -54.667 -51.9935 -45.8445 
-59.048 -57.9853 -91.5208 -46.2102 -46.3629 -46.4969 -48.0657 -55.5172 -57.4157 
-55.3945 -55.3305 -56.7977 -73.3269 -58.0729 -56.129 -55.7568 -56.1017 -49.5958 
-49.8849 -48.8396 -48.7747 -94.6947 -54.0904 -54.5043 -54.0653 -56.87 -58.9925 
-58.5965 -57.7691 -59.0327 -48.8717 -51.2088 -53.132 -59.2984 -59.315 -59.3502 
-59.3668 -49.4953 -59.1115 -50.5693 -51.1167 -51.4827 -50.43 -50.6227 -53.1859 
-50.3214 -45.9573 -49.5471 -56.0492 -50.2087 -52.8435 -45.8681 -49.9804 -50.7301 
-55.3532 -50.3111 -46.2522 -48.3942 -57.0508 -47.296 -56.9961 -47.4454 -47.4193 
-46.8975 -47.0096 -49.3862 -47.9669 -48.12 -46.1149 -48.9547 -51.0924 -46.1095 
-47.996 -52.1755 -49.5547 -52.871 -49.1751 -45.3628 -49.4918 -51.3623 -51.5463 
-51.0658 -52.2948 -51.8143 -53.378 -69.4945 -51.8831 -51.4027 -49.1222 -50.1639 
-50.669 -52.2924 -51.5639 -49.7769 -50.872 -51.208 -51.2439 -50.7501 -54.6269 
-56.6893 -56.1045 -56.3429 -53.9925 -61.5339 -57.1341 -56.3709 -56.412 -56.7626 
-56.7716 -49.3646 -50.9267 -47.5158 -52.5116 -49.1985 -48.6131 -47.9058 -50.2558 
-98.8169 -47.9762 -53.9741 -53.1331 -53.99 -53.1207 -54.4169 -55.4419 -55.3643 
-56.3129 -55.3976 -58.5468 -57.1469 -59.8072 -65.3408 -50.5528 -53.5524 -48.3118 
-51.4993 -50.523 -76.8134 -53.6216 -52.828 -52.0564 -53.4741 -47.1968 -50.1028 
-46.8271 -76.3804 -48.0187 -46.7788 -77.3219 -88.0001 -53.3325 -85.3649 -47.1125 
-46.9945 -47.5361 -57.9998 -73.3768 -81.7778 -88.5537 -57.5931 -57.3339 -57.8552 
-57.8309 -57.4128 -57.5004 -58.0468 -49.2782 -49.0352 -46.5566 -46.9186 -46.7468 
-52.7165 -49.5908 -49.1698 -90.6078 -46.3365 -51.9181 -46.9762 -48.2418 -47.0172 
-45.9283 -48.0916 -47.1316 -50.6 -48.6906 -93.5647 -46.0782 -55.6219 -54.9797 
-56.4757 -55.931 -56.5331 -53.5681 -56.1849 -76.8816 -80.7615 -45.452 -45.5761 
-51.1571 -46.4578 -46.3023 -46.2907 -54.2888 -52.0019 -58.9888 -58.9696 -54.8684 
-54.7434 -54.4102 -87.5578 -53.644 -77.9207 -50.8271 -55.3778 -52.5859 -58.9739 
-48.2249 -86.2563 -87.1578 -49.0405 -47.8692 -48.6636 -44.5699 -48.1092 -48.7283 
-47.0989 -75.9757 -84.548 -49.3052 -49.3988 -51.8003 -55.3674 -88.3269 -49.9935 
-58.6174 -87.2758 -56.911 -86.2411 -57.4826 -91.7155 -82.9092 -59.0341 -56.8241 
-58.5057 -59.1411 -57.1904 -54.384 -57.7082 -56.7402 -51.6942 -50.7202 -47.2021 
-47.8699 -46.9562 -49.2864 -50.922 -50.5027 -50.7879 -50.8472 -50.7908 -50.4393 
-49.7314 -50.853 -51.4698 -51.4728 -51.0295 -46.3423 -46.1065 -75.3075 -99.3629 
-87.0589 -56.5025 -48.4233 -46.1729 -51.3559 -51.4511 -46.2032 -55.786 -57.6686 
-83.7257 -56.5407 -56.1134 -56.5158 -57.1671 -89.5611 -55.6599 -53.9171 -95.5479 
-56.4355 -54.5323 -55.9561 -96.7032 -56.6691 -52.9365 -51.8339 -47.4654 -49.2163 
-47.192 -47.0382 -50.9571 -50.1391 -47.9489 -48.0254 -54.9195 -47.7412 -83.2609 
-57.8047 -57.2071 -52.0315 -58.016 -58.2687 -58.2723 -46.9369 -47.3984 -47.626 
-47.1264 -46.3819 -53.352 -49.5942 -47.3559 -50.5241 -46.199 -47.6969 -50.2088 
-50.4001 -49.1836 -54.6353 -46.0189 -51.3799 -56.0139 -57.9528 -57.595 -58.7704 
-62.9435 -51.7532 -52.1741 -60.9786 -60.6799 -46.4321 -46.0461 -48.5784 -50.0706 
-46.51 -47.9712 -48.1828 -50.6369 -66.4454 -45.5883 -47.8434 -45.2376 -101.671 
-55.5832 -58.7718 -47.3753 -48.6231 -46.6853 -46.9415 -47.8733 -52.5159 -56.3686 
-54.8946 -96.9457 -84.7271 -50.5171 -47.3798 -47.6265 -50.5436 -80.8063 -97.3155 
-47.1145 -90.6147 -53.8039 -47.9853 -47.3186 -91.1695 -54.3047 -53.3075 -52.7348 
-46.0189 -54.6063 -54.7154 -53.3251 -53.3086 -95.8382 -90.3283 -52.3652 -89.9486 
-51.9852 -53.0264 -52.8441 -46.1207 -62.6283 -58.7045 -66.2232 -46.4579 -56.4584 
-56.4384 -56.0425 -70.248 -66.454 -64.3487 -60.6646 -68.8423 -69.3051 -63.8829 
-63.4201 -57.4846 -56.8954 -58.7411 -59.8318 -48.6655 -47.5464 -48.337 -47.8291 
-52.0677 -48.8003 -48.1062 -56.0567 -58.1317 -53.8814 -59.7364 -57.4288 -58.7495 
-53.6198 -50.5967 -55.4059 -53.0162 -52.1917 -51.4458 -57.4475 -48.4057 -52.9659 
-52.4979 -49.4251 -55.9193 -57.1826 -47.4084 -48.32 -46.3398 -55.3124 -46.4742 
-46.2887 -56.1935 -55.3571 -57.0328 -59.2795 -51.3785 -76.7174 -49.8783 -48.5698 
-59.1032 -50.7165 -81.332 -49.0525 -46.4891 -56.5283 -56.8243 -56.6158 -46.3135 
-52.6901 -56.5075 -57.3749 -57.1963 -51.3328 -52.821 -87.1063 -52.9827 -85.8185 
-47.0765 -72.7999 -45.6047 -69.983 -84.6198 -47.1167 -47.5134 -47.5927 -51.3719 
-50.797 -94.6828 -52.2153 -52.1277 -87.0653 -46.1019 -63.3775 -63.6734 -63.0219 
-56.8236 -46.4611 -56.1675 -55.3399 -55.4447 -55.4456 -47.3508 -51.2336 -71.7269 
-51.0355 -44.8347 -76.7504 -48.5164 -47.4258 -47.2578 -46.882 -44.5179 -44.7928 
-44.476 -63.5587 -63.1642 -48.3857 -46.8159 -47.2726 -54.316 -53.5186 -54.6837 
-54.3505 -76.6779 -81.7749 -94.0093 -95.4747 -96.0563 -101.545 -94.0977 -101.974 
-89.7803 -86.3913 -98.704 -50.457 -54.0712 -53.5974 -51.1327 -47.7101 -48.5291 
-46.8587 -45.2935 -51.9599 -46.8714 -46.8926 -64.4638 -53.6429 -61.4919 -47.4287 
-56.7822 -56.2977 -56.7049 -56.4884 -46.4896 -54.4245 -56.3381 -56.133 -83.0009 
-85.807 -88.5571 -92.8046 -93.745 -85.1211 -51.3008 -47.4073 -56.8611 -47.4225 
-46.8757 -46.8564 -47.1724 -46.7985 -47.2688 -48.4921 -85.6717 -47.7151 -79.9073 
-52.1873 -53.2806 -52.2821 -46.5339 -46.5834 -54.1496 -56.8911 -85.9708 -47.1792 
-48.0181 -48.43 -46.883 -47.4999 -47.1432 -47.215 -93.1003 -49.909 -49.5058 
-47.9749 -49.8219 -46.3792 -48.2494 -47.1881 -50.192 -48.0024 -46.2543 -53.7631 
-68.6546 -45.9447 -45.7562 -51.7249 -50.4943 -49.2347 -46.3113 -47.5816 -48.8212 
-49.2247 -49.7352 -50.5517 -95.2542 -48.6389 -49.8659 -56.8945 -54.7736 -54.3633 
-54.2917 -56.5413 -55.0133 -56.2188 -56.2183 -52.2716 -47.0296 -47.5973 -47.4261 
-47.9938 -57.1923 -102.032 -93.6482 -58.3814 -55.5232 -55.5144 -62.9831 -62.7457 
-59.9903 -60.7457 -93.2252 -66.4963 -47.65 -49.1439 -46.6941 -84.9646 -49.6555 
-51.1418 -50.8512 -106.834 -73.0684 -68.4604 -49.0898 -49.022 -49.9124 -49.8446 
-47.7043 -52.3202 -86.9363 -58.6469 -57.3899 -48.746 -46.3294 -55.0353 -53.4091 
-49.6353 -49.5937 -52.1809 -49.6942 -49.1916 -70.9269 -52.8403 -67.7381 -45.9881 
-46.1717 -57.9162 -52.1594 -57.9629 -50.9813 -57.3895 -57.3938 -87.328 -87.1702 
-95.3507 -87.3074 -95.4955 -47.3053 -45.9311 -47.0318 -47.2578 -47.0235 -48.5492 
-48.0861 -46.8771 -48.3036 -47.4078 -47.3843 -47.5756 -104.413 -47.2147 -48.4208 
-48.868 -48.9944 -48.5543 -48.2596 -47.7484 -49.1919 -48.3894 -105.519 -54.7717 
-50.9296 -50.1953 -51.5786 -53.3018 -50.8111 -53.1044 -50.2875 -52.0783 -51.3136 
-57.1307 -55.9302 -56.362 -58.4312 -54.1401 -51.827 -93.1082 -101.02 -103.174 
-91.7231 -99.4747 -46.1177 -47.9859 -50.0333 -45.9535 -45.9838 -50.5094 -49.6738 
-47.0832 -94.7912 -96.4205 -47.095 -58.1609 -100.168 -53.0122 -54.5775 -58.742 
-54.1213 -48.2937 -79.6754 -86.9418 -48.9601 -78.7139 -50.6912 -50.4142 -53.1567 
-54.4199 -46.911 -109.524 -49.7402 -48.385 -49.3345 -49.4317 -56.1359 -55.1263 
-55.7334 -53.0865 -52.4791 -46.1518 -56.9986 -46.097 -56.9653 -57.381 -57.9001 
-50.879 -58.9432 -55.4059 -85.0842 -73.3318 -55.4778 -76.451 -66.0695 -70.842 
-70.6227 -68.2562 -75.1316 -75.0084 -52.4505 -55.7283 -57.4538 -56.902 -92.321 
-90.2391 -83.8824 -89.754 -91.0826 -95.4612 -46.4218 -52.228 -51.9849 -52.2822 
-63.8266 -58.9927 -55.3725 -55.2866 -68.6176 -62.0872 -48.6846 -46.527 -47.1257 
-93.6384 -86.6802 -54.7955 -89.8542 -81.2036 -57.3022 -84.3776 -70.9394 -55.6275 
-57.1726 -89.6626 -53.7695 -77.0067 -87.9955 -58.2673 -59.8655 -87.5071 -57.819 
-59.4037 -57.5645 -51.3776 -46.3527 -76.8817 -46.0529 -46.0973 -52.522 -59.4858 
-55.3651 -60.0589 -59.5657 -86.8074 -47.7166 -47.6585 -45.9187 -48.4266 -47.5827 
-47.3829 -46.6132 -46.8764 -46.0398 -56.3654 -56.7846 -55.006 -52.092 -49.4751 
-52.3413 -44.7724 -46.0465 -57.388 -48.7164 -48.6753 -82.334 -48.0569 -49.0635 
-45.0884 -48.2694 -47.7423 -73.1288 -49.4209 -45.1855 -51.9733 -89.7913 -89.9123 
-46.165 -46.6574 -48.2198 -49.3728 -53.65 -46.2577 -45.9782 -46.1562 -49.3121 
-57.3328 -57.0097 -56.1145 -57.0991 -54.8429 -54.1252 -83.1443 -55.5668 -54.9129 
-46.3573 -55.4628 -46.9875 -47.2838 -47.6294 -46.8822 -46.8752 -47.3261 -71.1427 
-53.996 -54.6989 -51.5086 -46.1352 -59.3244 -46.2146 -55.8631 -57.1404 -55.6706 
-51.8316 -90.4975 -49.6259 -48.9371 -49.4101 -49.8814 -47.3605 -49.1488 -50.2799 
-55.8753 -48.0927 -58.8828 -60.4931 -61.7018 -57.8828 -58.4489 -61.6831 -63.722 
-63.8712 -62.309 -48.2098 -46.8707 -49.6622 -47.3454 -46.9528 -46.9471 -46.1032 
-52.3618 -49.5934 -48.9862 -50.26 -50.8918 -48.6353 -98.3694 -45.6935 -46.4091 
-46.3915 -69.8644 -89.3238 -68.6574 -46.8245 -69.9776 -55.3579 -53.8111 -46.0326 
-57.7184 -50.1286 -48.6014 -49.5583 -48.6054 -48.1752 -46.4419 -50.0923 -56.3923 
-55.8799 -45.8068 -46.0825 -45.9012 -58.9098 -51.6007 -59.4213 -47.1542 -46.6291 
-45.922 -47.8588 -47.9796 -50.0264 -48.1485 -56.0917 -56.9321 -88.8523 -49.9021 
-55.7052 -45.561 -52.9476 -90.6476 -55.8318 -64.444 -58.2833 -57.9437 -58.0197 
-60.3255 -60.568 -58.0084 -57.1334 -46.2787 -80.3082 -58.0557 -57.9618 -57.9236 
-58.0627 -55.624 -57.4808 -57.5532 -79.5229 -94.7692 -55.9422 -45.5151 -94.592 
-47.2136 -49.6707 -47.0409 -47.05 -48.0347 -89.5126 -52.7249 -92.9827 -91.6777 
-72.3761 -43.6679 -44.0768 -82.9048 -46.3395 -46.1826 -46.4343 -46.2774 -50.5614 
-50.7218 -95.2716 -80.2381 -50.2545 -51.0922 -88.817 -50.2613 -48.7679 -95.3227 
-48.5612 -56.5821 -45.8441 -56.2406 -58.0477 -44.6603 -58.8312 -105.441 -105.189 
-102.446 -57.7839 -56.7121 -56.992 -91.3435 -58.7729 -61.4723 -96.7829 -60.0973 
-57.0068 -56.8627 -53.6816 -52.544 -56.9817 -72.7157 -71.3835 -44.1445 -52.9572 
-54.0988 -55.5698 -54.088 -51.0451 -52.5031 -49.7093 -54.1812 -50.2543 -50.1363 
-50.8343 -51.3992 -51.8659 -53.2116 -54.0193 -56.2919 -55.264 -52.1789 -51.26 
-59.1302 -58.4065 -62.6697 -62.4932 -79.1343 -103.473 -103.416 -94.9904 -83.6255 
-77.6771 -46.3699 -80.7461 -56.1301 -54.9144 -54.4583 -54.8219 -53.5364 -55.5113 
-57.044 -45.2528 -55.5817 -47.6917 -44.4607 -57.1919 -56.5047 -46.7681 -46.7611 
-46.9313 -46.493 -46.6632 -46.845 -47.0729 -47.2817 -47.351 -46.8551 -65.0615 
-47.1588 -43.7755 -44.3189 -44.1071 -45.7918 -46.1288 -45.9132 -45.9645 -56.6075 
-54.0726 -53.9511 -54.6519 -54.6573 -56.6001 -57.1992 -57.6063 -46.4775 -54.4236 
-57.6106 -45.8243 -93.6301 -98.1353 -43.7632 -81.5437 -56.4523 -45.8448 -45.8176 
-65.5885 -48.7112 -61.0522 -62.7021 -57.0268 -48.5296 -59.5113 -47.9901 -110.469 
-98.2466 -104.596 -102.085 -100.763 -47.1714 -59.2776 -46.3518 -46.7179 -46.7767 
-46.5648 -49.3436 -46.8438 -53.8515 -68.9024 -56.4502 -53.4833 -55.5782 -56.8682 
-48.9123 -49.6282 -54.5249 -47.3771 -47.0842 -47.0311 -46.8856 -47.2818 -46.8183 
-47.1638 -47.4812 -52.4888 -53.0689 -52.6009 -47.7596 -53.1427 -59.1793 -60.0497 
-59.376 -58.8598 -58.3992 -54.9545 -57.4141 -55.9396 -55.1178 -55.0853 -57.9241 
-55.3774 -57.2824 -57.1778 -55.0915 -54.8247 -55.0591 -47.6542 -50.2395 -44.8904 
-51.9418 -47.998 -44.2492 -45.4667 -46.6041 -46.8516 -46.4633 -52.3785 -50.4633 
-48.347 -48.9799 -96.0427 -49.8006 -53.0931 -51.4498 -50.4062 -46.4128 -46.2614 
-52.5416 -53.5024 -49.7555 -46.2077 -51.4435 -51.4696 -54.1004 -55.8325 -55.7262 
-54.4163 -57.87 -87.2555 -87.9618 -46.0076 -54.7876 -46.2197 -52.0908 -66.1589 
-48.4316 -48.9447 -51.7677 -46.5911 -46.7442 -46.8557 -91.4769 -51.6827 -48.2619 
-49.9085 -57.74 -50.2694 -48.7255 -50.2796 -48.1667 -91.4943 -46.1699 -49.0007 
-85.2348 -51.2293 -43.8836 -54.263 -83.9271 -67.9834 -50.7496 -51.1455 -58.4348 
-52.9571 -46.7683 -44.826 -44.6142 -46.327 -47.9857 -46.4568 -46.3066 -48.4962 
-47.9526 -48.1591 -49.1205 -48.4298 -57.0907 -54.6717 -54.2868 -53.6012 -58.9035 
-52.0785 -47.1216 -51.5146 -49.0971 -46.1847 -48.8006 -49.1621 -93.1923 -87.7984 
-80.1993 -70.3554 -64.446 -68.082 -55.1543 -68.3211 -47.3159 -85.1357 -47.8714 
-48.1938 -48.2817 -53.6675 -53.2274 -53.5252 -55.4078 -58.6682 -58.6822 -68.6821 
-53.7845 -55.1085 -55.8929 -53.0637 -53.3738 -56.8441 -53.8698 -56.1603 -47.9584 
-46.7886 -46.9119 -46.6694 -46.0989 -48.6086 -48.3814 -48.427 -65.9406 -66.2784 
-83.5698 -57.3981 -58.288 -86.3688 -49.2788 -50.2849 -91.8827 -44.4239 -47.9214 
-48.0738 -48.1359 -48.4297 -48.7975 -67.1967 -68.5886 -83.9038 -83.235 -91.5624 
-85.9292 -53.4068 -56.3579 -50.584 -51.0316 -49.6324 -80.3658 -83.7429 -43.8802 
-51.2789 -43.8151 -89.1313 -91.8633 -92.8253 -54.7978 -92.867 -48.7529 -48.0367 
-47.2657 -43.907 -47.8356 -47.6437 -49.5932 -51.9981 -48.8025 -49.1481 -50.149 
-44.0305 -83.1549 -80.7157 -45.5809 -72.913 -49.3874 -58.7417 -57.2179 -48.2034 
-50.6273 -50.0223 -83.9644 -93.5035 -55.7568 -46.1586 -44.0791 -46.2197 -45.6163 
-46.1861 -60.6418 -58.5698 -59.1328 -59.368 -58.5552 -57.4707 -81.0285 -87.5132 
-48.6625 -55.7203 -68.0478 -53.5709 -46.5834 -55.7372 -47.4643 -49.9438 -47.257 
-47.0385 -49.9523 -46.8407 -47.1444 -47.3518 -47.0482 -71.0539 -59.7113 -54.9272 
-87.5435 -52.1491 -55.363 -57.5004 -55.9447 -45.7671 -45.8689 -47.1932 -80.0869 
-46.0091 -52.837 -52.1962 -46.0249 -46.506 -96.3052 -46.055 -89.3461 -57.8748 
-58.9826 -57.3051 -58.1707 -59.1832 -90.1288 -62.4413 -47.8722 -48.0736 -49.6607 
-49.8107 -49.0591 -46.6366 -46.1463 -46.1483 -46.2342 -88.6744 -53.2649 -52.2767 
-51.7684 -55.7773 -53.7991 -44.2884 -56.0518 -44.3989 -58.9903 -47.7642 -48.0859 
-49.0965 -47.8532 -48.3694 -57.548 -49.5847 -48.7003 -53.1759 -50.0781 -54.6437 
-51.5067 -54.1981 -46.1401 -57.7444 -51.394 -46.3687 -46.5442 -46.2184 -46.2278 
-46.0364 -46.3176 -46.1544 -57.8846 -51.9295 -51.9063 -51.2752 -44.9855 -43.9047 
-44.0517 -52.9281 -95.7717 -46.4137 -43.853 -95.769 -47.8416 -95.7597 -79.7569 
-48.3909 -49.757 -49.5378 -46.4232 -48.9587 -47.4203 -58.4488 -81.2887 -90.5571 
-92.388 -74.3583 -57.3003 -53.3713 -54.7812 -54.5817 -78.016 -89.0927 -91.8324 
-95.6712 -48.5406 -48.4883 -48.001 -52.4913 -58.8778 -56.0963 -55.4363 -55.3356 
-53.5765 -48.3988 -53.7951 -47.5366 -82.2424 -45.6028 -46.1607 -46.5019 -57.2637 
-46.1963 -57.1083 -46.8715 -57.4026 -57.5056 -57.3667 -43.5719 -52.8767 -52.2948 
-49.5848 -49.335 -88.3505 -96.2366 -95.6752 -90.8824 -50.17 -48.9487 -47.9678 
-49.1891 -47.7928 -59.2959 -55.5629 -96.2485 -79.9416 -59.1989 -59.3477 -57.9943 
-54.8852 -55.6304 -56.8823 -46.0783 -57.6473 -68.46 -65.9229 -62.2551 -52.6454 
-51.3334 -51.503 -54.7915 -50.2087 -79.2537 -48.7569 -49.384 -55.6455 -54.7951 
-55.1218 -51.212 -55.9696 -46.9134 -46.6012 -84.9205 -51.6715 -54.1996 -52.8901 
-51.4809 -48.4587 -48.8243 -47.2908 -47.006 -47.3186 -45.9485 -46.0417 -54.9798 
-55.2111 -56.2862 -90.0358 -54.3723 -44.1085 -46.3626 -46.1661 -92.8241 -93.7277 
-53.7937 -55.9328 -86.0208 -46.4987 -46.612 -46.4484 -88.6397 -80.0212 -57.7489 
-48.1389 -48.9095 -48.503 -51.8449 -51.8027 -53.8505 -46.4284 -50.7272 -57.2038 
-51.6668 -58.3889 -57.7618 -58.1533 -46.2763 -58.5953 -59.4783 -58.0006 -65.0476 
-66.8017 -62.1684 -63.9225 -53.813 -53.6655 -53.6303 -47.6548 -93.4081 -94.2689 
-88.4377 -50.9498 -45.788 -89.2985 -55.8673 -48.9614 -58.2847 -48.301 -55.2472 
-50.7622 -58.2148 -52.0242 -57.7001 -50.9794 -52.173 -60.1638 -52.8794 -53.7283 
-51.1151 -55.6324 -46.1622 -96.4394 -90.5134 -56.2907 -56.3457 -50.5574 -49.7332 
-51.1069 -46.1261 -46.5413 -55.748 -79.5698 -58.8277 -52.2107 -46.5617 -50.9749 
-48.4172 -50.5202 -44.1638 -58.8329 -49.4366 -49.5284 -55.5798 -58.9114 -81.0535 
-46.349 -56.9951 -86.6358 -46.3003 -51.2254 -45.976 -48.8227 -46.3226 -84.6408 
-50.2102 -80.9254 -46.2363 -68.0506 -46.3154 -51.0063 -58.1205 -45.0886 -54.8671 
-49.182 -48.5734 -47.749 -47.6113 -47.5076 -49.5384 -50.1544 -50.008 -52.2763 
-44.5022 -52.6715 -44.884 -49.4052 -59.9768 -51.7674 -44.0484 -50.8613 -51.6275 
-54.5191 -53.096 -53.704 -48.8734 -48.235 -56.6433 -46.0359 -54.6166 -45.9737 
-46.0978 -55.994 -45.6309 -48.8869 -48.0909 -50.6787 -79.1424 -51.0298 -50.6004 
-82.4861 -52.9334 -52.3088 -52.8919 -52.653 -50.2204 -53.801 -51.8616 -46.0196 
-51.1178 -55.9956 -50.9282 -74.6511 -92.9372 -82.9658 -47.9478 -74.0126 -68.4018 
-66.4399 -55.5463 -57.5562 -56.4844 -46.2615 -46.0522 -50.2115 -50.1125 -52.0152 
-52.6012 -52.7432 -45.6296 -56.3398 -56.0223 -56.5088 -50.5511 -58.7424 -58.7476 
-58.8043 -56.1942 -53.4507 -53.4905 -83.9905 -56.1958 -56.37 -54.3653 -56.3906 
-56.0605 -55.6478 -54.8857 -55.2984 -44.2332 -53.0913 -45.9645 -46.4563 -45.9521 
-84.831 -81.3043 -92.0652 -84.6996 -94.7342 -88.2721 -48.6493 -48.4374 -47.8729 
-47.3463 -46.0798 -55.5855 -56.7855 -57.4934 -58.5575 -46.4116 -49.1053 -74.4325 
-50.1934 -77.7762 -50.6141 -53.853 -53.2332 -54.5064 -52.6735 -44.8499 -45.2407 
-53.6805 -57.5738 -56.9963 -56.8914 -56.2741 -57.9033 -56.0038 -49.2608 -48.7663 
-49.4717 -59.9432 -57.5775 -56.9041 -51.4381 -51.6194 -52.5737 -52.5784 -49.8835 
-49.8157 -43.4319 -43.5337 -47.0875 -47.8982 -47.2965 -51.664 -50.3532 -46.293 
-57.9814 -54.7419 -51.0571 -57.5599 -57.5966 -59.031 -59.0677 -49.5876 -49.834 
-58.6779 -58.4909 -50.4069 -49.567 -49.222 -60.0793 -48.7032 -49.279 -52.4319 
-46.4064 -44.0952 -44.4111 -50.4826 -50.0159 -48.6019 -48.7222 -48.4325 -85.4873 
-48.56 -48.3544 -51.0946 -50.385 -81.7719 -49.1654 -49.6618 -50.6383 -55.6239 
-91.4202 -46.2999 -55.6318 -81.5595 -51.6076 -55.6408 -46.1828 -54.5382 -50.5368 
-51.4779 -49.9007 -46.5386 -49.9592 -53.1863 -43.3351 -43.4369 -43.3406 -43.6469 
-48.2848 -47.4482 -47.3446 -50.5501 -51.2535 -89.9039 -58.1338 -50.8029 -97.0585 
-49.7353 -65.6443 -65.6471 -44.0915 -52.5453 -51.7614 -52.332 -45.6743 -81.8918 
-45.6142 -46.1457 -46.9888 -51.2632 -51.3831 -50.8947 -50.8517 -46.2314 -50.6755 
-48.7777 -46.4158 -47.7156 -48.7471 -49.619 -50.6536 -51.5293 -51.6819 -53.799 
-64.7244 -64.7272 -56.6823 -56.6983 -45.7178 -53.0566 -45.5223 -52.6486 -45.613 
-55.1669 -49.097 -50.8111 -51.5762 -51.546 -51.5142 -51.5444 -89.7677 -46.3668 
-48.8608 -46.482 -46.2338 -45.4857 -44.7698 -50.3972 -45.1175 -45.4465 -52.9687 
-56.942 -52.1198 -56.6749 -49.5266 -49.6003 -50.263 -50.4201 -49.7573 -51.0092 
-52.5903 -68.4094 -51.8688 -51.5596 -56.3326 -56.3342 -59.0576 -55.8014 -56.312 
-59.0742 -54.0878 -52.5073 -48.0281 -46.2922 -48.2541 -49.7567 -50.1195 -50.1644 
-50.431 -50.1541 -49.6947 -49.9613 
METADATA
INFORMATION 0

STRESSTENSOR_XY 1 15232 double
0.166225 -0.0774517 0.118038 0.591168 5.61334 0.413666 5.07907 -3.85444 1.09135 
2.24991 10.275 0.218351 3.82174 0.223564 11.1536 -0.582629 0.102306 9.66052 
0.559549 -3.93291 10.4193 -0.198354 0.248089 -2.68133 -3.90356 1.03588 3.87007 
1.44433 -4.41036 -0.263303 -3.76052 -0.664631 2.9578 -0.133092 -3.94378 0.743921 
-4.18462 6.75554 -2.13797 0.415598 2.58574 11.886 -0.170989 -2.21753 -4.05518 
-0.510499 1.49497 12.6477 -2.82678 -0.68855 1.74381 11.8191 -0.802876 -0.589006 
10.1643 0.12404 -0.0657877 10.9436 1.68983 -2.89081 -0.0763752 -1.37465 -0.173341 
-0.683847 12.8718 5.67386 -4.2235 10.8568 7.34385 0.106303 1.28353 8.91557 
0.06214 -0.648621 13.0866 1.41158 -0.0717748 2.18707 6.68198 9.6066 12.925 
-3.87439 -3.98201 0.111131 -2.23231 4.26119 -1.32168 -0.243429 0.433585 -1.24031 
11.1281 -3.10034 8.86556 2.28386 3.46948 1.06657 0.655959 0.0315269 0.987584 
-0.485615 1.14261 -0.143313 7.97757 13.5505 7.73706 12.1722 -0.999917 -0.65658 
0.327823 -0.998335 -1.91536 -0.846599 -1.24167 -3.98863 0.313109 1.32167 -2.27647 
0.203251 -0.0947781 -0.307221 -0.937972 -0.439198 -1.85652 0.656989 -0.301881 -0.244114 
-2.51721 -2.68135 8.44199 -2.47868 0.300572 -2.05234 8.00867 -2.92874 2.12434 
-3.92131 -0.994732 0.0491256 -3.24271 -2.17961 0.573765 0.189813 -0.11637 -0.723995 
4.28288 -1.63078 0.0401387 0.651712 2.39633 1.13371 -0.0224368 0.0733294 -3.97682 
-0.319696 0.650063 0.827564 -3.55571 5.32785 -0.818054 0.601858 0.11408 0.120159 
-3.76829 -4.29436 -0.0976572 -3.89021 -3.14189 -3.70117 0.85733 1.92848 -0.408937 
0.744665 1.26008 -0.478949 -0.972598 -0.213996 0.564207 4.67036 -3.45743 -0.0960428 
-0.375257 -4.27328 -0.379493 -2.56024 0.422927 0.492707 2.83645 3.97611 2.59007 
0.744378 2.23388 0.00737398 1.0253 3.65335 3.04864 0.387543 0.0885402 0.632139 
0.0567965 0.417928 0.372198 0.094671 -0.459762 0.642435 -2.36035 -1.47418 -3.90755 
2.34342 4.19484 2.6804 2.36409 3.49236 -0.0298244 0.6699 0.334829 -0.118968 
9.00983 -0.0388678 0.291936 -0.0530773 8.00526 4.00157 5.39404 12.7249 0.789897 
2.97861 -1.23579 0.97686 -3.6588 -2.64987 -3.74659 0.000747853 -4.17301 0.195068 
1.51819 1.82861 0.671731 -0.422272 4.57767 1.06636 0.00619654 0.372038 10.1771 
2.8528 0.986112 4.53935 -0.0147579 -3.66284 5.16232 1.07631 -0.361172 -0.75337 
-2.6118 -3.51759 0.498816 2.25738 -0.904158 -1.94896 -0.588981 -2.77814 -4.32738 
2.34242 3.07841 6.56223 -0.595022 -0.773536 -0.902438 2.9661 8.96952 4.37135 
4.59483 -0.598753 1.23072 3.22762 -3.92018 -3.73232 0.0549186 -0.934006 2.62187 
-0.269387 0.221315 -0.579065 1.95544 -0.599083 -0.0363459 7.05361 0.575688 8.07772 
-3.78842 3.29921 7.82246 1.47331 2.35531 2.56802 -3.32746 -0.682549 -2.02973 
10.1368 7.21983 0.21246 0.541566 3.46742 -1.14468 0.0125213 1.64117 -0.217802 
-0.364862 -2.89099 7.30265 -3.96321 -0.775649 -4.38643 -3.03297 13.2698 9.09125 
12.567 0.0889372 -1.15497 -0.0935579 0.0574299 -2.85852 -0.960394 -4.0435 -3.86678 
-1.86052 -1.14865 -3.0059 -0.616212 -1.41363 -2.40994 -0.921786 -4.04892 -0.938297 
-3.31727 -0.251612 -0.648983 -2.71368 0.481289 0.70688 -0.261421 3.14989 -4.16876 
-1.85883 -2.23351 -1.8854 -2.02786 -0.268146 -3.68 -0.117004 -0.85343 -0.319417 
-3.79661 -0.0671442 -3.93179 0.447055 0.852871 4.28016 0.0815263 -3.20086 -3.77155 
-2.80623 -4.0382 -3.58796 -3.19717 -0.324215 -4.09861 -3.93711 -1.37271 12.1378 
10.3862 7.36485 9.50558 3.35078 0.955679 2.9527 6.08402 -2.40108 10.6977 
1.3972 -1.67864 10.5289 10.4595 -1.69357 -2.70121 -3.56624 -3.93438 -0.435114 
1.48209 0.188417 0.0815778 -2.47236 -2.36989 0.118082 4.32063 1.01241 1.2393 
1.22162 -3.77618 -2.75187 0.220454 6.90969 -3.95609 -0.595691 -0.648663 -4.48641 
-0.268842 -1.48092 -2.96125 -3.86073 -1.20521 0.985078 5.70074 0.918264 -0.0173637 
3.23547 11.0159 -0.324836 -0.281449 0.907541 0.355944 0.0201184 4.75609 0.504032 
-0.00981456 -0.111842 -0.921461 -4.08761 -4.0358 13.1564 -0.0451788 -3.44591 6.67393 
-0.474385 -0.256542 -0.153406 -0.273686 -0.197316 -0.256711 -0.777922 1.67275 0.744079 
1.97016 0.0336759 -4.11488 0.0761767 1.0712 -3.95125 -1.28126 8.41519 0.632365 
5.02773 10.7557 0.825332 -0.542597 -4.23068 1.00952 0.119713 0.0369717 0.0663323 
4.0589 0.154964 0.128555 -3.16966 -0.423722 -0.282026 -0.576272 8.2151 1.88197 
9.36322 -2.69423 8.7716 -0.893563 0.856069 1.11173 1.15414 -3.69523 0.351992 
2.35015 -0.800761 -0.234643 0.186852 -0.108908 -3.52994 2.07958 3.33076 -2.06653 
10.7688 3.49883 1.26824 1.05649 -2.11069 -0.313644 1.76001 7.11222 -1.63727 
-0.211713 -3.70272 -2.65847 -1.13188 -0.0810788 -0.0639181 -0.359496 -3.53842 -1.90712 
0.299417 0.776877 0.172432 0.837399 0.362736 0.156899 3.32091 1.94968 5.62046 
10.0747 -3.21813 0.0423102 1.07219 0.58201 2.09802 1.76115 3.10381 0.446221 
-0.0432306 -0.20783 -0.138351 0.856758 8.06472 2.50192 10.5791 3.28136 10.6042 
0.0539896 -0.0232448 0.0882766 -2.5687 -0.589339 11.7796 -1.37163 0.000408289 0.0121114 
-0.00364816 0.698649 2.61107 6.43338 -2.76614 -1.98983 2.17484 2.3758 -2.28125 
-0.272866 -2.905 -1.68132 -1.76747 -3.54265 -0.883279 0.045727 0.417791 2.30875 
-0.0909683 -1.55089 -3.40581 -4.21224 -3.53932 -1.23121 -0.660769 0.413247 0.65318 
1.26016 0.0410632 0.911995 0.625506 -2.2149 -0.507824 -1.46488 -0.782467 -3.11883 
-1.70418 -0.206588 2.75822 4.46139 14.1662 -3.67143 -3.45646 -0.177707 -0.770166 
-0.176514 -1.48786 -3.8962 12.745 2.14065 -3.62742 -4.0544 -3.90968 -3.89606 
4.91615 -1.35448 -0.51961 -0.583359 -0.715584 -2.51285 -3.59997 -3.36841 -0.855484 
5.80041 -1.89281 0.216757 -4.36876 -3.32208 -3.22194 10.8262 0.6088 0.249462 
1.28136 0.566715 -0.15732 -2.39437 -0.0639949 -4.00671 -0.0460158 -0.183135 -0.0058719 
-3.82681 -0.394897 -4.14827 7.60441 -0.816738 -1.71354 -0.763479 -0.499014 1.18265 
7.13308 5.63927 0.382346 1.53434 0.360201 0.0707103 -2.98224 8.52072 1.65679 
8.70851 10.0149 4.79205 10.0061 -0.138916 -0.380603 -0.0701178 -0.0663304 -3.81557 
-3.62517 -3.9227 -3.48701 -2.21669 -3.04593 3.00307 11.06 -2.35924 -0.4369 
0.175907 -0.411331 -0.0686946 -2.96659 -0.784919 -0.815877 -0.321193 -0.658534 -1.32772 
-0.782787 -0.242889 5.05184 2.01853 0.402799 -4.08472 0.557995 1.15531 -3.53584 
-2.29283 -0.81449 2.32349 -2.03897 -0.0573931 -2.28586 -0.702749 -1.1401 -0.110053 
-0.0419949 -3.95276 -4.02117 -1.9705 -0.483285 -0.576386 1.55757 7.32805 -2.09447 
8.21141 -0.309675 -1.38408 -0.339863 0.915151 -1.09044 1.1699 0.970143 0.412099 
-0.137755 -0.392962 -0.167476 -0.534776 0.607754 -2.95378 0.357727 0.257488 -0.0523004 
0.371182 0.818508 -3.97552 -3.73289 -2.62967 -0.451649 -0.688405 0.445736 0.0372528 
12.7638 9.82191 4.75321 8.80075 5.30068 -0.63401 -1.14813 -0.699104 5.55704 
0.702636 2.43285 0.667968 -2.0011 -0.561603 -0.686313 6.07768 1.5765 6.90336 
0.640005 -1.56046 -3.52533 -4.21746 -0.349659 -2.31209 0.481882 -3.00739 -0.49194 
-4.10495 -4.42645 -4.06212 -3.9385 1.82423 1.16078 2.15949 0.287778 0.515279 
-0.219432 -2.05708 -2.8038 5.25494 1.67833 1.71317 -0.247598 -3.63765 -4.25476 
13.1237 0.868106 -0.00197728 5.20136 -1.06139 -4.04463 -2.0357 0.67233 2.45753 
1.69112 -0.497174 1.32167 -3.21078 -3.57468 -1.19343 -0.2477 5.21683 11.4426 
11.9959 3.13566 13.6511 11.424 0.0801111 -0.326043 -1.48414 12.8762 8.71143 
-0.837272 0.455489 0.273067 0.112557 0.346548 -0.494736 -0.513623 -0.257406 2.07085 
2.43511 0.488404 -2.55939 -3.55811 -3.82296 -4.20402 -4.08878 -0.72509 -3.43955 
-2.4677 -0.279959 3.46717 -3.75091 3.79869 -1.0962 2.34582 4.20081 10.357 
0.626392 0.572513 0.00375004 -0.180967 3.7263 1.21985 3.43629 -1.0043 0.222006 
0.390079 0.447468 0.362089 -4.01684 -4.04995 -3.18145 -0.823719 -0.597547 -2.45366 
-0.150511 -0.207376 -3.35769 -0.128376 -3.75062 -2.97635 0.656036 13.5381 0.393726 
-0.280551 -3.88122 1.91223 -0.412755 0.223772 -0.667857 -0.739808 -2.22125 -4.13192 
-0.525867 -0.831238 -0.622669 0.454335 1.84889 2.48201 6.14569 2.28354 2.10938 
8.44232 -0.157188 -2.66084 -0.0468039 -0.0824909 8.29555 14.0248 -2.37995 -1.11454 
7.07271 2.19819 0.430177 0.257815 1.09882 1.93542 2.77779 6.26308 2.08431 
1.12773 8.6696 -1.58907 3.42417 0.652264 2.54168 2.04863 0.844624 -1.00879 
3.21869 0.0504583 0.932153 0.330922 2.56437 0.686463 8.40976 0.342118 0.219817 
-2.21363 -0.452807 8.82536 7.71761 10.6944 13.0879 3.3894 11.6744 7.44062 
5.3624 9.39004 3.7431 0.225766 0.34534 0.510863 -2.69283 -0.393818 3.08219 
-0.572933 1.1178 -0.799307 -1.14164 -0.795416 -0.584903 3.81303 4.37149 2.7727 
3.33572 1.61104 -4.09608 -4.18591 13.5151 4.95272 -1.25896 5.11508 7.68053 
7.1041 -4.00351 -0.119495 0.106005 12.4528 2.46466 6.21208 6.77407 5.85328 
9.81336 4.6946 -3.6908 8.05324 10.531 0.111437 -1.85274 -3.85175 -2.22581 
-3.97269 -4.02017 -2.99372 0.0531115 -0.858325 -3.92847 -3.99161 -0.350538 -0.980503 
-0.594822 -0.769321 0.122568 -3.71241 -2.82827 2.13666 -4.45489 -3.4328 -3.30778 
-3.64315 -4.26929 -1.15475 -0.356561 -0.628438 -0.0723901 -0.344885 -3.01517 -4.32659 
-3.98002 -4.25828 0.180677 0.00509177 0.319622 -1.6987 -3.70979 2.06245 -0.965432 
-0.720602 -2.59632 -1.82818 2.76588 2.86343 2.45355 3.66259 3.17392 0.444843 
-1.11016 -0.310784 -0.545608 -2.28331 -1.78371 2.56542 7.40587 0.340876 4.33636 
7.35467 -2.63229 -1.48024 -1.67353 -0.663204 -1.99691 -0.596709 -3.39725 -3.94426 
-1.90771 -2.18003 -0.959009 -0.503671 1.06356 0.103911 8.55817 0.539137 2.14006 
0.199976 -1.74124 10.1877 9.00199 -2.03669 -0.297596 1.57018 -0.23098 1.95612 
0.501112 1.20607 7.3242 2.84531 3.78678 1.42927 -0.0154773 1.65757 3.1399 
0.333222 -3.71514 -3.19255 -3.22238 0.414825 7.38863 1.40939 0.738151 -4.03545 
-3.92965 -4.28208 -3.20268 -3.04604 -4.25753 -3.68653 -3.42654 -0.945505 -0.749111 
-4.17765 0.973981 2.81276 3.9473 3.38244 5.52315 -1.81292 0.830526 -0.550853 
1.15832 6.9446 -3.1004 7.1928 -0.16282 -0.128891 12.6626 13.2598 10.3618 
10.8985 0.0952918 3.42135 2.74412 1.23829 -3.98887 -4.31595 3.85748 0.688097 
-1.75673 2.43917 -3.99743 10.2103 14.1934 7.20125 2.0524 -0.0945505 -2.5575 
-1.89809 -0.23518 -4.16337 -2.75842 0.719338 2.1323 0.597227 -3.07364 3.72415 
3.53238 0.29978 -1.42539 -0.664113 -0.199899 -0.857337 -0.0703687 -4.16804 0.254723 
0.717839 -2.824 -2.95744 8.90019 -3.77562 7.3841 -1.83914 -0.582945 -1.06651 
-0.821694 -0.0537611 12.707 11.4077 5.45312 7.49321 6.00356 0.274044 5.56046 
1.24133 6.93996 0.781805 -1.04208 -2.35832 12.7928 -3.36081 -0.721221 -3.1919 
11.4748 -0.452531 -0.46883 -3.65003 1.09135 1.01129 1.54127 3.86336 0.643627 
-0.428587 -0.424606 -0.0809862 -0.267748 -0.0611971 3.02089 8.54494 5.48408 11.3442 
12.3799 0.466426 0.0914295 0.179975 0.997108 0.396638 -0.206676 -0.065508 1.38074 
-0.102007 7.59277 14.4027 -0.0607281 -0.301108 -0.430555 -0.133079 -0.184771 0.128953 
0.273715 0.137052 3.20525 -1.65053 -1.88909 -2.49516 -0.634928 -1.08133 -2.14541 
-3.78301 -1.71406 12.9164 -4.24228 -3.94774 -3.53246 -3.67806 -2.43558 -4.40996 
2.99532 0.0999365 -0.069534 1.16629 1.71726 -3.44137 -3.84088 -3.98121 0.049684 
0.0948281 0.0137985 -3.79789 -3.73548 -0.00399819 0.772951 0.142827 -3.30621 1.95841 
-1.48944 4.71362 2.43058 -3.62105 1.1458 11.2674 6.90882 2.22573 0.422569 
-0.0685645 -0.420864 -1.6683 0.196288 0.503594 0.280294 4.28039 2.44071 2.14002 
1.59597 3.05411 5.99596 11.8374 13.6041 7.33584 10.7024 8.04901 9.49305 
11.7471 6.62347 0.251205 1.2956 1.63271 -0.620963 0.194335 8.18231 5.14167 
11.7508 7.92761 13.4114 5.45922 -1.65323 -1.50807 -3.50074 11.2279 3.08802 
6.85905 2.96333 2.7468 9.36932 -1.23105 -0.0936766 0.0952387 6.42842 8.85971 
10.144 3.13741 8.29573 12.5233 10.5561 11.8133 -0.0414006 0.284718 1.16213 
0.594472 -0.925565 -2.55264 -2.76232 -3.91956 -3.30465 -0.549628 -2.88996 5.35562 
0.14982 0.182085 0.0138947 -3.40612 3.19322 -0.791071 0.162686 -0.620954 -2.00832 
-0.563876 0.505362 -0.0116904 0.885298 1.40544 0.383403 0.502572 0.176423 -0.793183 
-2.66463 -0.979872 2.04435 -0.390947 0.209448 0.706221 -0.277614 0.29008 -0.159375 
0.909793 -0.188201 0.300216 -1.35376 -0.223636 -3.51206 -3.49376 -0.486732 -3.80757 
0.494671 2.04337 1.5475 11.0457 9.7265 -0.452651 10.8555 12.6688 12.1526 
-0.00847754 1.79238 2.06051 6.52646 9.71809 0.371135 7.41531 7.54576 3.18428 
4.02312 0.422428 0.278291 -3.3163 1.08409 -3.76916 -3.93225 -3.37825 -0.0376578 
-1.67442 -0.473201 10.3446 7.47865 1.7979 -0.931189 0.288904 0.862722 -4.14782 
-3.42022 -0.17872 -0.427708 -0.901742 -1.97515 -2.35145 -0.643388 -3.4507 -0.664527 
-1.35929 -0.544108 0.386165 5.67488 1.7706 1.72933 10.0775 8.25119 -0.14991 
2.98653 -0.331338 1.42131 0.643593 0.111809 -3.4131 -3.17502 0.438643 -0.332431 
0.328446 4.60476 -2.35423 -1.85912 -0.702464 -0.0458677 1.1062 -2.95652 -3.67403 
-0.770852 -3.64976 -2.09236 -0.751419 -4.26801 -4.00773 5.0088 2.28162 0.473962 
1.68625 2.02043 1.97831 0.261995 10.9394 -2.42543 -1.61143 4.25018 -0.332078 
-0.704746 12.9345 13.1204 -0.136446 -2.97757 -1.61048 -4.20604 -2.71448 2.38313 
0.242749 0.276107 0.62356 2.79553 5.90662 -2.26682 0.912519 -0.538786 0.641546 
0.333186 1.6051 -2.95634 -4.06471 0.79063 11.1403 0.273606 4.02951 3.09455 
-3.95907 -3.27476 1.86273 0.366796 -3.44762 -3.7734 -4.15757 -0.256318 -0.457798 
-0.191619 -3.6194 -4.14679 -3.99198 -0.440923 -3.40318 -4.23135 -3.28424 -3.97288 
-4.02349 10.9559 12.0908 8.17292 7.5896 -0.670208 0.227972 -3.82124 -1.16841 
5.55311 -1.12884 -0.839819 -0.602138 -0.833322 4.87958 3.85429 2.99301 3.70601 
12.1535 -1.70123 -1.8488 0.175645 -1.16633 -0.168623 -0.077152 -3.7246 -3.14067 
-3.96861 -3.2129 -3.65176 0.124588 3.37882 0.635786 2.77857 4.29055 1.71144 
2.76455 12.6508 5.1525 -0.00554672 0.000759646 0.030717 1.0532 0.374529 0.0796329 
-2.46682 -3.19638 10.9352 -2.97731 -3.78136 0.628824 0.42023 0.506297 -2.28083 
-4.23329 -2.13315 -3.51612 -0.677339 -3.90014 -3.6199 -3.84906 -3.82786 0.352437 
1.45449 -2.01052 -0.884947 -1.99136 -2.38835 1.72646 0.107199 0.506361 1.39254 
-3.66163 -3.46876 -3.26511 -1.66621 10.9538 5.14335 7.84664 8.26509 3.91289 
1.99453 6.26863 5.09047 8.81976 8.63675 0.128506 -0.375929 -2.00192 -2.55838 
3.45287 2.54159 1.34156 0.790638 0.695874 -0.20365 4.2795 -0.606382 -2.47756 
-3.92455 -3.8639 -3.83767 2.5708 2.24796 -0.925836 -0.523798 -3.99838 0.0687635 
0.277947 0.257913 0.0505978 3.08184 3.42652 -0.143132 -3.20218 -1.89363 -0.263941 
-1.91199 -3.03738 4.00731 -3.10204 -0.809784 4.68564 14.2536 14.2703 13.5851 
12.0645 -1.08061 -2.43236 -1.43233 0.517356 -3.46793 -0.56519 -1.65255 7.73646 
4.54487 6.19815 8.5178 -0.139731 -0.24815 -0.183564 -1.08962 -1.14157 -0.0568393 
-0.297066 6.18867 4.12373 -1.88042 -1.35145 -3.1391 -3.46398 -2.82417 -3.20821 
0.00266646 -3.53881 -2.37114 -0.363457 0.00497523 0.176505 0.324407 0.274884 0.784265 
1.97687 0.476547 0.640024 13.8638 -2.37708 11.2826 13.3458 12.0189 3.07361 
-0.864489 1.83361 -3.03312 6.52567 6.42725 1.25217 0.011639 0.568166 2.79737 
0.662524 -0.265612 -0.848934 -0.0877967 -3.57848 -0.962617 -0.568135 -0.2854 -2.52876 
13.2029 11.7537 -0.98843 2.47706 -3.46104 -0.398604 -1.31709 -0.41733 -0.71681 
-0.129935 0.0481585 1.5585 0.827001 2.9251 0.770166 2.67552 0.654305 -4.11722 
-3.88212 -3.88011 -3.68615 2.93487 3.52617e-05 1.76183 -2.95614 3.20169 1.11312 
7.97787 5.73321 -1.6922 0.79654 9.78728 -0.296551 0.854013 -4.19564 -3.30246 
-1.23779 -4.28366 12.662 11.1929 6.08067 2.13124 1.15795 5.71313 -0.50106 
-0.154072 0.176599 5.19856 4.96685 -0.468772 -1.23303 -3.77873 -3.91997 -3.07282 
-4.20401 10.5718 0.185136 -0.269678 1.70486 1.70502 2.58994 1.72188 2.40133 
0.744558 -1.10814 9.02708 0.635649 3.58271 8.83096 0.145536 0.0316447 -0.0788263 
0.0798312 0.070669 0.204554 -0.0642472 14.2075 -0.256311 -3.2019 -0.38077 -0.54701 
0.101452 1.1865 0.323022 0.785951 5.7281 0.394408 0.452459 0.408595 6.65679 
10.3661 9.07743 -0.640525 -1.26277 -1.149 0.982331 0.227952 0.962686 1.31176 
0.609683 2.20975 2.65468 3.08109 2.97154 3.1342 11.3844 3.08988 3.75693 
10.6054 7.72314 7.92421 0.452351 0.411019 11.0563 -1.83427 -0.638881 -3.31227 
-4.26547 -3.97824 5.8192 5.11068 -0.694204 -0.464233 -3.72402 -0.593776 -1.80263 
-3.15029 1.20497 2.27306 0.717166 7.2608 5.00672 3.66148 1.42411 2.11085 
-3.90663 2.36431 2.1367 2.49195 2.19777 -2.89405 -3.62974 -2.97444 -3.84615 
0.604226 0.246512 -3.41559 -3.55597 1.4348 -3.63406 -4.02103 -0.193861 -2.36916 
-0.158287 1.68169 2.22272 2.22784 0.144256 -0.165676 -1.88406 -2.26529 12.2129 
10.738 3.37054 5.15656 6.02711 0.867909 0.957031 10.4642 9.39218 0.377493 
0.221378 0.814087 0.411417 7.23991 1.77529 -0.860002 -1.85709 -4.23909 -2.00851 
-1.42657 -3.96556 -4.04265 -1.78081 1.15671 0.137064 -0.214081 -2.46281 -0.659383 
-1.23062 -0.556232 -3.86512 -4.37292 1.73958 2.21219 0.831962 2.17033 -1.31305 
-3.59573 0.102482 -2.21816 0.416223 -4.01517 8.24576 0.0640554 0.876748 0.137458 
0.101896 5.45532 6.70528 8.46693 4.1805 -3.99051 -3.03749 -2.52629 -0.864583 
-1.49887 2.59643 0.489679 9.56033 13.1975 0.342895 2.92286 1.06835 4.25008 
-0.106865 -2.96361 -2.94678 -2.95291 0.894504 0.102149 -1.49364 0.273403 0.0181607 
0.928504 -0.939443 0.316724 -0.695771 6.62579 13.1947 13.0491 -2.63971 -0.704158 
-2.08061 -3.55833 -3.00296 -0.947236 -2.02719 -0.652667 0.0656777 0.0746121 6.97887 
7.0699 7.06202 2.57437 1.69149 0.220383 0.699311 1.7523 1.59015 1.62958 
1.04544 1.60149 -3.60982 -1.04755 -1.31007 -0.843135 -0.343657 -0.877678 -3.22968 
-4.06893 4.20812 0.455638 2.2636 -2.24586 -3.8995 -4.2046 3.39596 -1.40861 
-4.16738 -3.93523 -4.1305 0.731011 2.66182 0.532927 0.49099 0.633738 -0.0194489 
-0.186618 -0.0913704 -0.595356 -0.259212 -0.537262 -2.75707 5.70439 3.24981 8.64956 
9.94191 3.10242 8.30294 -1.14227 -3.22072 -0.667022 0.830067 0.180885 1.22717 
1.01142 -1.99879 -0.0913766 -0.470528 -0.33142 -0.528852 13.2907 0.369251 -1.02057 
-0.387589 -3.69298 -0.741909 -1.09999 -4.1042 -4.28656 -3.33815 -2.26814 2.9938 
1.35328 1.07805 0.306717 9.46131 8.79525 -0.763259 -4.12947 -3.33655 -3.78951 
-1.17743 2.31586 0.723351 1.10225 -0.557982 -3.63973 -3.21701 -0.51133 -2.6262 
-3.28191 -2.19841 -0.958359 -3.57073 0.119338 -1.15514 -1.19609 -3.28946 1.50422 
3.73041 4.52739 7.30246 0.365375 0.336506 1.98319 2.02503 0.827754 13.898 
-0.428128 -0.890386 0.238945 -2.79928 -0.241841 -0.505903 -0.0535351 -0.493862 -0.323438 
1.51707 -0.870831 0.437764 0.564319 -0.595875 -0.558572 -0.280532 -0.923138 12.3596 
12.584 12.9645 0.720791 -3.50397 -2.52984 -3.30231 -4.09558 -0.320506 -0.621979 
-2.19029 0.320485 0.226093 1.03876 -3.25747 -2.87471 -3.51093 -3.65143 0.724894 
1.6111 11.9425 11.2905 -3.67692 -4.06522 -3.58572 -3.37295 -0.528928 -0.565417 
-2.09799 -0.360998 -0.534932 -1.33606 -1.91856 0.218733 0.319085 3.34367 -3.19258 
-3.49745 -0.745131 -0.949529 1.7481 0.291455 1.07275 -0.562898 -4.21235 -1.35013 
14.1758 12.8878 13.2101 0.169825 0.227672 0.000479853 0.150011 -3.06432 -2.58246 
1.11097 0.0230769 1.73676 0.48301 0.253959 0.786092 -0.114697 -0.443357 -0.308205 
-4.1627 8.486 -3.92143 -3.77495 -4.29038 11.3894 7.82556 11.3708 6.86356 
7.33359 -2.61921 -3.12693 -1.50466 -2.09792 -1.72819 -2.58973 -4.17026 -1.47785 
1.23338 1.58668 -1.88921 -2.66232 -3.08059 -2.11723 -0.810454 1.26814 1.71796 
13.9971 8.7945 5.08291 9.18622 10.5181 12.0023 1.15366 2.64666 -4.03281 
-4.226 -3.42967 -2.08266 -2.90419 -4.20542 -3.43731 -0.628109 -0.0306018 1.83747 
1.24102 0.611025 0.32919 0.161054 0.20931 1.71987 5.43826 3.0465 -0.514795 
0.235686 -0.275661 -1.71744 -0.399052 -0.744745 -3.91705 -0.48844 9.2188 0.0833731 
0.0267281 0.0233837 -0.150391 -0.023206 -1.26517 0.472944 7.1604 -4.27971 11.7325 
1.72918 11.6614 -0.344662 -0.0373665 -1.71042 -0.0547199 -2.71411 8.44153 9.47368 
-1.36792 -1.36351 -2.703 -2.93468 -3.81144 -1.40974 -3.84147 -4.2844 5.15826 
-2.78684 -0.141976 0.384986 0.418556 -0.4782 0.306783 -2.87818 -4.05263 -3.99793 
3.3885 9.08173 5.62078 6.45539 6.47547 -0.177325 -0.662958 -4.08525 -0.487238 
11.3973 12.2403 7.33439 10.3165 9.78504 -5.31096e-05 -0.0409698 -0.370497 -0.218971 
-2.15902 -1.8046 -0.721814 -0.144298 -1.0528 -1.83151 0.285369 1.45338 0.357812 
-2.67419 -4.39677 -2.46583 -1.89473 -0.931887 0.274035 4.54259 -3.05141 -1.10524 
-0.395047 -0.515593 -2.91154 -0.540866 -3.35045 -0.0285584 -3.59826 -1.98202 -2.40483 
3.1108 7.78135 -0.617046 1.38063 0.432927 -0.51758 -0.564811 -3.02527 -0.344496 
-1.27563 -0.110582 -0.240567 -2.45652 -2.4706 -4.01384 -3.9517 0.338136 0.0140502 
-3.94306 -2.92822 11.76 5.19683 6.3778 4.5495 4.57626 5.18542 2.47836 
3.45845 2.29369 4.63353 3.12874 -0.93435 -0.342926 -0.113262 -0.673925 -0.645324 
-0.411286 2.82675 3.62448 5.55954 3.33192 5.54184 4.79273 5.25178 10.2853 
-0.652679 -0.496135 3.95788 -0.645793 -1.21346 -0.518994 -0.430054 1.8354 -2.31332 
-0.452507 -1.49634 0.502616 -0.378391 0.482676 0.403002 4.27875 2.9313 0.194748 
0.430189 0.0568826 0.713192 12.1873 8.17126 10.6966 12.8867 13.177 10.6403 
-3.7011 -4.33449 -3.67752 -0.385792 -0.885786 -1.67857 -1.18579 -2.04536 -0.0385123 
10.8023 9.53863 5.58593 3.11086 4.73272 2.8522 -1.46541 4.06376 10.4438 
-2.38614 0.696648 -3.7631 -0.679425 -3.27148 0.218547 8.83541 6.00416 10.5697 
2.40905 -3.618 -2.25165 -3.92501 -2.50929 -2.95493 -3.45187 -3.93448 9.28523 
0.43943 5.25476 11.0302 -0.0910097 -0.0752583 11.3217 9.52327 13.4398 11.3929 
-0.552179 -1.1196 -2.22931 -0.905656 7.63687 -4.13169 -3.35081 0.294682 0.271968 
10.8886 13.3056 12.1659 1.29813 1.19977 0.822291 -1.92886 -0.406581 5.24799 
-0.630024 7.52502 7.22156 3.20105 -0.812983 -1.40576 -2.36479 0.435221 -0.27268 
0.74238 6.1576 -0.2028 -1.59938 -1.53974 -2.34187 -1.11892 0.0546466 0.0255888 
-0.0238345 0.0521081 -0.557165 -0.486813 -1.42097 -2.35826 -1.03301 5.88172 3.38537 
4.42257 -0.991715 0.0127477 2.08458 0.00521015 2.69544 6.80201 2.73369 6.80505 
-0.205881 -0.362372 -0.0134855 -1.17795 7.67158 -1.03237 -0.844717 -0.962835 -1.59574 
-3.01832 -3.93192 -3.65544 -4.09043 -3.08989 0.188372 -0.0567325 -0.0523818 -0.0597275 
10.0646 -1.52838 -3.78495 3.90032 0.100651 0.203136 -1.92673 10.614 -3.56877 
8.1913 6.36856 6.6321 6.22209 1.65285 0.331825 1.42504 0.340133 -2.8168 
10.4389 0.931029 0.690833 11.4584 -0.0393249 -3.97484 -0.433787 10.6644 7.05611 
12.2066 0.319898 0.296924 0.34166 0.373803 0.0365391 5.43251 -4.17264 -2.28399 
2.70098 1.93487 1.71937 -0.239065 -0.33312 -1.48624 -0.311691 -0.0974448 0.1025 
-0.0261149 0.242307 2.49079 8.12814 0.433791 0.610118 0.570297 -0.450267 -1.16432 
-0.62693 -2.29288 1.15632 0.668328 0.793888 -0.345788 0.509188 -2.72663 -0.902679 
-0.677654 -2.01292 -3.06963 -4.26226 -3.78473 -4.23397 -2.69046 -2.62511 -0.210061 
-0.327631 7.3615 7.68473 -0.867353 -0.0963492 -0.710658 3.75467 -0.291386 4.00144 
7.55803 3.85484 4.61819 14.1877 11.9908 8.36716 3.41079 -2.52437 -0.051239 
-2.43713 -3.96099 -3.25563 -3.5333 4.75927 0.649525 -2.58506 -0.448193 -3.70276 
-2.10165 -1.17156 4.05676 0.216575 0.158445 0.340217 0.472825 0.513387 2.74996 
3.36271 1.48241 0.54275 -4.03673 -3.33156 -4.43927 -3.72266 4.16803 -2.06072 
-3.79323 -2.28057 -0.619266 -1.48297 -0.888595 -0.23794 -0.140201 -0.383765 2.21758 
1.00677 2.127 -0.304988 0.135288 2.9644 -0.556395 -0.458059 3.55357 7.50909 
0.998072 5.7383 7.7459 12.4647 12.607 12.998 11.8323 -2.20089 -1.76237 
-3.42948 -3.08849 -2.39892 0.543486 0.947629 -0.64009 -0.609878 -1.36203 -2.81931 
-2.50305 -3.44256 -0.767122 -0.469376 -1.66563 -0.260243 -1.48132 0.503499 -0.56561 
-0.178344 -0.359189 10.2312 0.520892 1.13695 1.41795 2.05554 1.22544 1.58178 
0.28255 4.9624 0.511334 0.571943 3.80174 4.57488 3.2223 1.72447 1.26612 
-1.02776 -0.25789 -0.79765 -0.833105 -2.393 -1.60181 -1.03193 -4.18852 -2.62953 
-0.417642 -2.54068 -1.78313 -4.23534 1.08827 1.27898 4.69625 11.5362 7.34868 
0.4329 0.0521294 0.978914 -0.153398 -0.170426 -0.122152 -0.0566731 -0.158727 -4.21905 
-4.3056 -4.07782 -4.13285 -4.1381 -0.011547 -0.046653 -0.0986333 -0.148772 -1.27045 
-0.0369559 0.382723 0.57601 0.2484 1.026 -1.7156 -0.483165 -2.8476 -0.508432 
-0.651839 0.748818 0.0384347 0.239589 -0.0379802 -1.00201 -1.53358 1.0226 1.65492 
6.95223 5.9059 5.58751 10.1398 5.86069 7.17029 10.899 9.76846 1.37981 
5.26789 6.55727 8.94432 1.36526 3.47309 3.9785 4.43504 4.62855 -2.34164 
-3.11757 -0.256832 5.42155 9.96817 9.34907 5.53977 -0.685222 -0.568615 -0.956423 
0.539591 0.96817 0.287613 0.526533 0.422148 0.188634 -0.537269 -2.88321 -3.56064 
-0.395044 -0.471962 -0.81783 8.38961 0.20524 2.64588 -0.0259938 -0.521564 -0.509235 
12.9891 7.42996 0.886954 2.06598 1.01446 1.83599 0.72755 -0.410539 -0.255507 
8.92157 6.72584 3.5093 0.59892 10.3243 3.89065 0.435766 0.693507 1.19268 
0.768427 1.78246 -2.02766 -2.05503 -2.08745 -3.62731 4.27855 3.7729 0.26904 
4.2057 -0.78963 -0.309214 -3.45137 -1.32353 -0.569113 -4.02545 -1.29499 0.593844 
1.03372 4.4436 0.755176 1.19571 1.83404 -3.43495 -3.28594 -0.793903 -0.797684 
-0.784717 5.80878 -0.53499 -3.60495 -4.19063 -4.03863 -0.357263 -0.638414 -0.460592 
8.72936 -0.404086 -0.932107 -1.94797 -0.746087 -1.04063 -3.73703 -0.211212 -0.0471122 
-0.110692 -0.14398 -3.98786 0.769594 1.01816 0.358958 0.420835 -3.7253 -3.56234 
-3.56322 -3.14605 -3.71829 -3.99195 -4.16722 -3.38696 -2.90158 -2.31493 0.653029 
2.65663 2.34511 7.60086 5.69749 12.8489 12.0283 5.20178 0.499188 0.305142 
1.0296 1.30276 0.926834 0.0675204 -3.94586 3.24598 -0.522553 0.847119 4.18976 
-3.36002 -3.88455 -2.88548 -0.00751539 0.037399 0.155701 -0.062938 0.00956432 11.2411 
9.31493 11.1582 0.0367256 -0.252835 -0.255172 -0.256376 0.201316 0.919389 0.312278 
-0.217217 -1.11119 -2.53004 -3.88163 -3.69015 -3.91111 0.0376676 0.132797 -0.132367 
-0.0773402 8.32833 10.1181 10.6525 1.05126 0.437255 0.702899 0.66356 0.029049 
2.69927 0.74224 1.31104 0.255683 0.127188 -0.0462622 -0.227799 -0.494393 -0.0298546 
9.84847 8.76517 9.03635 8.50669 6.23593 8.38111 -0.777532 -0.459645 4.31564 
4.62975 -0.352918 -0.38325 -0.517348 -0.100811 9.34698 7.84041 10.867 1.00592 
4.26005 6.18864 6.82632 5.24178 8.77509 13.4994 -1.54921 4.88512 7.03048 
4.09225 0.59497 0.876107 0.268604 0.163365 0.311686 0.425934 -1.52849 -0.956532 
-4.01419 -3.89811 2.22256 9.85753 -0.0878647 -0.106861 -0.215971 -0.196324 -0.0535929 
-3.76648 -3.98145 -3.7861 -3.3815 -4.12442 -0.73385 0.521413 1.81303 0.419051 
-0.230415 0.0898139 0.0628402 0.0847942 0.0732001 -2.36116 -3.38792 8.70951 9.97084 
-1.01306 -0.323785 0.300507 9.67682 8.8026 12.6672 -1.92048 0.0207765 -0.319266 
-0.381548 -1.71481 -0.270755 -1.56225 -0.303405 -2.26483 0.0977949 0.16772 10.6443 
6.8951 -0.432738 -0.186811 -1.22834 -2.88509 -1.07304 1.87902 -0.180507 -2.13827 
-2.36484 0.762641 11.1521 11.5732 11.2949 10.5584 1.6886 0.203993 3.33924 
0.546336 2.83824 2.33895 0.396684 -2.0647 -1.16421 -2.31499 12.6849 4.54946 
3.87636 -3.05603 0.187183 0.0915909 0.0932012 0.157042 0.113948 0.174628 0.582468 
0.461191 0.0637418 13.7315 13.4499 13.4588 0.179383 -1.07575 0.526348 7.58479 
-3.50671 8.3826 0.811546 0.231644 0.19335 1.03162 0.280827 0.307456 1.73104 
1.95425 -0.00950726 13.2028 10.7166 12.4931 10.0615 10.9066 0.493616 -0.460342 
-0.43825 -2.63135 -0.0490875 -0.165929 -0.601239 -0.856862 -0.570143 -0.580364 -0.561101 
-0.11336 -0.443163 -0.165998 -0.233689 -0.631828 -0.625693 -0.122916 -1.54756 -0.0666348 
9.0044 -3.18385 -3.51733 -4.27827 -3.55367 -4.45332 -3.29093 -3.65852 -3.61776 
-3.57994 -1.00502 -0.473599 -0.211649 -0.496878 -0.116425 12.014 11.4168 14.3418 
12.965 12.1653 6.27663 -3.97664 3.54808 -3.61143 0.693449 -0.575616 -0.669188 
-0.323442 -1.32238 -0.691276 -0.524943 0.512587 -0.709444 7.53514 14.5278 9.8876 
-0.310475 13.591 13.3776 -1.50769 -0.794014 -0.570153 -0.809577 1.04471 3.83162 
0.382277 6.8038 6.04071 -4.09742 -0.497682 -0.624314 -0.354455 -0.359559 -0.838162 
-0.23715 0.131178 0.71289 -1.90262 -2.31498 -0.314136 -0.570171 12.3746 12.1761 
13.4553 12.0284 -4.01541 0.184133 -0.780756 -0.625646 -2.93982 -0.815098 -1.61862 
3.02052 0.286442 12.2541 0.000506954 0.136168 0.656976 0.0792428 -0.823782 10.1477 
12.4894 0.312448 1.41945 -3.61859 0.121676 2.0932 -2.10533 -0.467238 -0.879725 
-2.77682 -2.3566 2.30586 1.879 1.58186 9.06662 12.3865 8.10432 9.7455 
13.042 0.547407 0.26524 0.484293 3.82483 0.259245 0.160042 -0.150724 -0.632585 
0.327459 0.0356677 -0.210648 2.65461 -4.09888 5.39668 -1.29742 -1.7228 -0.294126 
-0.26251 0.557669 1.05946 -2.50355 0.185352 0.108579 -0.551589 -0.586688 -2.55056 
-3.2339 2.0679 -0.168869 1.78765 1.64468 -3.76067 -2.3996 -4.01456 -0.277017 
0.0436297 -0.155291 -0.163129 -0.196243 -0.431333 -1.96811 -0.217455 -0.571413 -0.301997 
-0.205824 -0.149303 -0.996484 -2.33753 -1.4455 -2.40857 -0.887652 9.67299 -0.115539 
0.360884 -0.00527552 -2.38261 -4.29756 0.634768 8.39049 1.70793 -4.01134 -0.262129 
-0.502008 -0.712037 -0.636428 -0.683421 6.66527 6.63665 0.460948 8.77625 5.82164 
0.481612 0.256303 -3.99242 0.544897 0.107202 0.368074 0.984548 1.18303 -2.58977 
0.823927 -3.23848 -4.24225 -0.20676 -1.17257 -0.546911 -2.0139 -1.82753 2.997 
1.86812 7.5896 8.72877 7.48109 -0.451099 8.29332 7.86025 3.40728 -2.95743 
-3.29382 0.208555 0.0347486 -1.72008 -2.21634 0.557884 1.38949 2.86965 -3.31136 
-2.98281 -2.15322 -3.89579 -0.764555 -0.131153 0.355459 -0.376133 5.5473 0.344389 
3.68518 -0.156664 -0.0203213 -0.096714 -0.713385 3.87755 1.45498 -2.67517 -4.08895 
-3.86807 -4.29724 1.77592 0.457161 0.7933 -0.11583 -1.73448 -0.100964 -0.843267 
-3.12584 0.0572442 -3.45909 -2.72435 -3.64429 -0.606952 0.124058 0.242503 0.594758 
0.530995 -0.362588 -1.22749 -2.86041 2.15873 -1.41348 -0.495704 -0.763134 -1.25594 
-2.61988 5.88995 -2.61528 0.461609 11.1599 7.94258 10.9425 11.2677 0.2859 
0.12072 0.196178 -0.201279 3.71011 1.08035 -0.651354 0.330735 -0.621582 -2.94333 
-0.786913 -0.616902 -2.91726 -4.13787 -3.71906 -1.29988 -0.189827 -0.0537689 0.593512 
2.36019 3.66884 2.8414 3.76658 3.42981 2.51242 -1.25317 0.138782 -2.28624 
-4.06301 -1.41961 -1.84844 -0.467068 1.97826 11.084 9.77436 4.75998 5.56706 
3.56458 0.522172 4.23687 1.12033 -0.422725 0.0181345 -4.2289 -2.51312 -0.331111 
0.187603 -0.0150608 -0.616771 -0.422244 -0.214493 -0.223798 -1.74675 -0.350907 -2.83337 
-1.49661 1.68195 -0.0748632 0.377621 0.0387912 1.25189 0.229686 0.104006 0.102734 
0.0704244 -2.12081 0.0315698 -3.28888 -2.80638 0.353467 -1.35021 -2.04353 -0.624121 
-1.01991 -0.122 13.1438 9.9269 -0.495743 -2.71022 -3.358 -0.545028 -3.29614 
-4.00152 -0.0255268 0.323053 0.278923 7.6791 12.8999 -3.21501 0.423963 0.106903 
-1.30632 -1.01747 -0.16118 -0.762839 0.120437 6.26122 11.2872 13.6865 1.63815 
0.166648 0.189047 0.349911 0.202435 0.287397 7.08043 8.34967 9.65644 -1.40833 
-0.52949 6.50745 2.0027 1.05406 -2.72646 -0.00518676 4.3622 -1.28395 -0.686339 
-2.61896 -0.769469 -4.04179 -3.81666 -3.88162 -3.85873 10.9161 13.1354 11.2097 
12.5667 13.7635 10.8516 -4.19776 -0.552363 -3.62295 -0.576236 -4.28866 1.20655 
3.40745 1.82484 10.339 13.1034 -0.630749 -0.371607 0.462073 0.617824 3.22544 
1.27343 -0.0710756 -0.0960944 1.99761 0.103311 0.0700038 0.4374 12.375 12.3189 
11.6509 13.3232 13.3575 12.4552 -2.93778 2.62231 -1.67841 -1.85302 1.5514 
5.48501 0.818562 0.44402 5.59057 7.8165 9.52677 -0.332758 -0.654917 -0.205217 
-0.266623 -1.80013 -2.4467 0.143963 0.100257 0.142162 -2.0385 -3.48857 -0.00852119 
-4.13093 -4.4344 0.667356 1.11286 0.218191 4.01531 -3.25727 -4.19594 -4.32856 
-0.0927383 -0.168517 -0.150464 0.656383 1.50616 0.36065 6.05525 3.45212 2.64935 
-2.23126 -0.136901 0.159924 2.17522 -2.94998 -1.01496 -3.1474 -1.80866 -2.9552 
-0.629268 0.326024 5.60634 0.237472 0.347216 -1.74632 -0.412508 -1.85402 0.021382 
-0.075635 0.00343984 -0.157602 -2.20097 -0.440256 -2.18792 -1.65997 -0.908115 -3.73634 
-1.60043 -1.1143 -4.01623 -3.47666 -3.96878 -3.61402 2.65774 2.41387 0.371699 
11.3227 0.328695 2.91197 2.90524 0.454701 -1.22706 -4.01837 -0.0240153 0.256162 
-0.118772 -4.43062 -4.21238 -0.73256 -3.83626 -3.82776 -1.59771 3.53906 -0.356517 
-0.58227 -0.647029 -2.06751 -0.715723 4.12436 -1.47303 0.680929 0.603902 0.396174 
-3.39569 -3.4903 2.39984 2.36416 0.0824579 0.391203 -1.55227 -4.10804 -3.8012 
-2.70636 0.379916 0.270263 0.114249 0.418566 -1.29605 -3.16387 0.331955 -0.436123 
-3.68989 -2.11236 -2.49268 0.186085 0.146234 0.00970498 0.0730011 11.01 7.11729 
11.2618 3.91901 3.57329 10.5692 10.8595 10.2085 5.72635 3.36152 5.43912 
5.84101 0.890872 5.76138 -3.09739 0.693192 4.128 -0.255082 1.18549 -0.0146501 
-3.29667 -2.02989 -0.793223 0.282017 -0.737651 -0.119334 -1.77546 -1.17176 -4.33679 
-3.15054 -0.636455 1.17745 2.69398 7.13573 -3.16263 0.381643 -0.886026 2.18079 
0.103321 4.89233 11.0538 0.169986 0.462957 1.64311 -0.144663 -0.161041 -0.218543 
-0.18043 -0.275922 -0.280699 -0.488188 -0.793408 -1.6172 4.24824 7.59274 0.109045 
0.0346341 -0.279709 1.41795 0.89842 1.97111 -0.444562 0.354741 0.518581 -2.6041 
-3.57042 7.48844 -1.50854 -0.481136 -0.297682 -0.744151 -2.31106 -4.07402 9.64228 
6.16447 7.20516 5.33144 3.27555 8.525 5.61726 5.73717 2.74102 7.53841 
2.1982 3.57101 2.67583 2.06991 1.69141 0.349229 1.56375 0.0273246 -4.18963 
-1.85257 6.14874 4.58394 -0.372022 -1.3295 -0.446227 -0.0543505 -0.188511 -0.177012 
-0.0951221 6.60411 9.07078 8.10453 9.04056 3.4674 2.40551 3.01436 0.0327325 
0.194423 0.178867 -0.0370835 0.0299168 0.0910211 0.0139131 -0.188055 -0.378812 -0.210298 
-4.00215 -4.04997 12.7914 6.29114 11.4708 -3.26372 -3.5432 -2.96545 4.28339 
5.20173 1.92413 -3.5404 -2.35224 -1.42012 -2.25374 -3.67111 -0.436193 -4.29027 
-3.25092 -0.502166 12.4548 0.298161 -0.23223 -2.33555 -0.591017 -1.65794 -0.258507 
1.93192 -3.43223 -0.978417 1.24422 1.9034 1.60548 1.95347 1.77493 1.41562 
0.533852 1.04792 0.949093 3.32427 0.804969 0.80367 0.646115 0.63337 1.44262 
2.67612 1.18693 -0.177797 4.385 2.12004 9.39884 6.24918 6.76119 11.4931 
9.3893 3.58122 12.2046 -0.559515 -3.03245 -1.96821 -0.679636 0.142083 -0.0748279 
0.664609 4.807 10.0884 4.98713 0.0365937 -0.0332662 -0.344032 -0.205611 -0.413517 
-0.351851 -0.308159 -0.344622 -0.0234279 -0.0260975 -0.240786 -3.84725 -3.40127 -4.13371 
-3.71947 -3.81675 -3.43119 11.9477 10.5803 12.6554 6.57064 8.80137 10.0032 
8.16321 13.0986 6.7394 6.36043 -0.488435 -0.279813 -3.59034 -4.02455 -4.14583 
-4.25453 -0.397954 -0.498657 -4.28936 -3.89121 -3.90318 -3.55282 -3.70101 -2.7914 
-3.89244 12.9492 11.6767 12.757 13.2282 -2.0867 -0.76059 -3.39973 -0.341163 
0.0659171 -0.157011 -0.143227 0.0342273 -1.82316 -3.00735 -2.73852 -4.21284 -3.90522 
-0.368333 -2.80646 2.87574 12.067 -1.06169 -2.43195 -0.466268 -0.290351 0.397142 
2.93711 3.33865 1.24007 1.91402 -4.09352 -4.28603 -1.3541 -0.301579 0.0289126 
0.230704 0.453517 -0.620126 -0.844251 -0.351995 -3.97804 -4.17917 -3.98695 -3.92347 
-3.85598 -0.523544 -4.12912 -2.29034 -1.41167 -1.42174 -2.55341 0.190563 1.42714 
-2.55785 -2.38704 0.748493 -2.96642 -3.93867 -0.372208 -1.9643 0.0219731 -0.542786 
-0.353016 1.5035 3.23031 4.19426 -0.738673 -2.63949 -0.57537 -0.533265 -1.41995 
-3.66468 -2.31891 3.04782 -0.863061 0.150823 9.32801 12.5232 13.0747 0.24749 
0.372857 1.91981 -1.14149 1.83589 -1.77691 -3.40649 0.0334944 6.98935 4.99601 
-0.290589 1.48601 1.13963 0.538452 0.781924 -0.213879 0.168898 -3.82155 -3.9588 
-3.38118 3.56774 -2.58696 -0.285902 -0.503527 1.15942 -3.62818 -4.28571 -0.268046 
-0.53162 -1.19809 0.615807 -0.798363 0.725198 0.164051 -0.401663 -0.217804 -0.336514 
0.13274 -0.433119 -0.721507 -1.15236 0.301587 12.7152 -3.2132 -0.73392 -2.14659 
-3.63053 -3.1398 -2.87455 -3.50137 -3.214 -0.297812 -2.20681 0.185201 -3.79743 
13.5054 12.7824 3.91795 -4.2072 -4.36289 3.77925 -4.09522 -2.79805 1.09955 
0.689774 4.08175 7.92277 0.108488 -1.30015 -0.0439153 2.03463 0.921239 0.766857 
0.727429 1.07704 1.23469 0.537535 0.0692235 0.896992 0.863747 2.04711 -1.25631 
0.357349 -2.4257 -1.75818 0.788011 0.469042 0.304956 -0.211154 -1.29099 -1.1092 
0.286555 -3.66435 6.588 7.32223 3.87395 0.613009 0.518084 1.92104 0.0172872 
0.678393 0.0836463 -1.61911 -3.24609 -1.48964 0.580566 1.26865 0.358353 0.460038 
0.2753 0.234251 0.49428 0.341528 0.365737 2.45941 0.645893 1.64754 -0.320341 
-0.114431 -0.389461 8.41831 9.83275 9.29054 3.98959 -0.278433 -1.71792 4.26879 
-3.00694 -3.44932 0.463612 0.481729 0.125461 -0.260999 13.7508 -0.238268 2.09173 
-0.348611 -4.03147 -0.484319 -1.1725 -0.435774 -0.319484 -0.250632 -1.8491 -0.52501 
5.61118 4.69401 0.331007 7.30074 7.59531 0.884534 -2.63923 -0.698606 -3.80077 
-0.54678 0.319615 0.127929 0.0492896 0.0636992 -0.039232 -0.0403686 0.0454828 -0.512994 
-1.64528 -0.0201489 -3.87745 -4.129 0.0672296 6.29883 0.164816 12.8223 -0.587969 
-1.39456 -0.541009 -3.06811 -0.239586 -4.13354 -4.14239 -3.97412 -1.18501 -0.762279 
-0.732363 0.109211 -0.0404174 0.133286 -0.731695 -1.65172 -1.2399 -1.37412 11.8841 
-1.3745 -0.134484 -0.411045 -0.145989 -0.181749 0.628476 1.06385 3.26439 1.86903 
1.57461 1.1589 -2.59598 -0.995377 -2.35094 0.19422 -1.03874 -0.335983 -0.281375 
7.92899 6.17819 6.9748 6.51243 6.21156 -0.660867 -2.07565 -0.729015 -0.60437 
-0.356668 -0.177904 -3.55295 -1.33107 0.73407 0.17447 0.605523 0.227694 0.187835 
0.200526 0.229899 1.13384 0.405055 0.401901 0.343492 4.70142 -1.89134 -1.31649 
2.84831 -1.88202 -0.0678141 -0.0329504 -0.498249 -0.457376 1.79875 -2.35437 1.10763 
0.460106 1.20448 0.745803 0.183066 -1.68571 0.85868 -1.42166 -1.71795 -3.12321 
-3.14466 -0.0495323 2.188 0.430376 0.517444 3.94899 2.0019 -0.0120813 0.0579251 
0.201709 0.182879 -1.21258 0.460904 -0.52391 -0.236245 -3.26208 -0.48614 -0.981468 
-0.0907429 -0.0989281 -0.526531 -1.20338 -1.41644 -1.33967 -1.901 0.804596 1.61052 
0.0544487 0.971179 -1.55373 3.5463 5.19027 1.50868 1.92036 12.1133 7.76837 
9.55337 4.92477 6.26299 -3.83156 2.35265 -0.527053 -0.560799 0.0688403 7.05242 
6.76718 6.2128 -1.35703 -0.678573 -0.617539 -1.32017 0.282 5.97834 0.27067 
2.81966 -1.25661 -0.0994829 -0.150085 -0.0750481 0.862561 0.690927 1.35519 0.250029 
1.42993 3.03233 0.507781 0.318849 1.94606 2.1386 0.815072 0.09384 0.245607 
0.363199 0.232634 -0.0160392 1.0126 -0.0176989 0.282532 0.373736 -0.697174 -0.587491 
1.66205 1.74674 0.421968 1.10166 2.85836 0.656614 -0.381631 -0.290962 -1.27429 
-0.534798 -1.05066 0.0751803 0.123264 -3.00831 -3.15718 -4.08556 -0.137607 -3.80703 
-0.218113 0.161436 1.07012 3.01654 -0.433415 6.40717 -0.357687 -0.755325 0.911402 
12.1434 -2.15009 -0.245467 -2.16568 -3.60385 13.9571 13.8622 12.7601 14.0083 
-3.95673 -3.21715 1.02697 1.00735 -0.0628823 1.10396 1.02468 0.0536096 -1.4007 
0.569144 0.110666 9.01701 0.221912 0.282369 1.19124 -0.0708484 0.0810652 -0.095188 
0.132651 0.111199 1.87795 0.420616 2.92232 -3.69949 2.43529 11.9333 14.1753 
13.5152 0.744163 0.896637 0.0929139 0.171442 -3.82995 -2.76075 -3.99018 -3.46548 
-0.29452 0.0873797 0.343183 0.648816 0.595343 -0.0382421 0.414747 -0.331537 11.1633 
11.5533 12.1627 12.7187 12.2908 -1.86813 0.658152 -0.771082 -2.16287 0.224606 
-0.11598 -0.0758133 -0.398109 0.928911 0.616552 2.47963 1.47424 1.00703 2.57185 
2.59609 7.22263 2.32987 0.612633 1.28518 -0.0255364 -0.139815 -0.0316541 0.00764738 
-0.186375 -0.119889 0.029608 0.47185 0.320876 -0.0865169 0.00476861 -0.0122529 -0.247932 
-0.675893 10.3196 10.4623 -3.23528 -0.660101 -0.451918 -0.529824 0.351489 2.04863 
0.383801 0.246472 0.961545 2.59747 1.52089 6.09865 1.77855 0.800581 1.75702 
-0.176738 -0.179227 -1.39819 -0.201229 12.995 9.88414 9.2698 8.35671 -0.819917 
-3.06544 -2.28343 -1.24951 -1.34338 -1.59603 -2.10046 1.46257 -1.56332 -0.557463 
3.15044 8.69665 -3.53491 1.53536 1.77177 2.14604 6.02217 0.299348 0.362595 
-3.8556 -3.72206 -3.49751 -1.58542 3.55778 0.433172 1.11634 0.945971 1.1094 
2.06925 -0.615913 -0.770035 -0.622335 -2.03694 1.14668 -0.340616 -0.0293623 0.114362 
0.0320786 0.146015 0.0967174 0.804845 -0.609979 0.258079 1.6865 0.670801 -0.504043 
3.0999 4.13877 2.58063 -0.195516 -0.647666 -0.370365 0.73856 11.5462 -0.879277 
-0.219505 3.98715 0.83297 1.83673 0.513584 -0.565949 -1.01786 -0.149496 -1.98586 
1.46402 4.57491 1.81835 12.8415 12.7785 12.8164 10.1627 -1.57575 -1.37903 
-0.318411 -0.290589 -2.09333 14.589 11.2858 7.86969 12.7598 9.79284 12.207 
10.2008 0.577906 1.92945 13.3407 12.4322 12.7292 -0.249245 -0.261806 -0.154341 
9.14127 6.99071 8.35256 10.4097 12.2235 0.353124 -0.37918 9.85018 7.32399 
8.79821 4.94666 3.69298 8.79399 9.6443 10.4178 0.85316 1.50372 0.61893 
0.825319 0.676484 -3.19546 -0.322954 -0.326589 0.685497 -1.09793 0.183264 -0.743069 
0.949733 0.235932 4.75488 0.951269 0.715673 0.444614 10.2677 6.56905 6.42921 
9.7881 5.85927 8.98335 -1.86483 -3.29439 -2.52886 -4.21821 -3.77947 2.66524 
-0.562925 -3.4399 3.67112 -2.63025 2.54643 1.41685 0.533787 0.147371 0.21798 
0.205285 -0.596126 6.06684 0.27439 0.597971 3.9762 1.4439 0.356662 0.843103 
1.66687 2.05471 1.79732 -0.663607 -0.737102 -0.73649 -0.238818 -0.388049 -0.541591 
-0.172029 -1.28748 0.559886 0.540577 2.01544 0.633301 3.48208 4.25242 7.0448 
4.85587 3.75547 -2.21552 -1.80148 -2.34659 0.066935 -0.177798 -0.0632727 -0.014735 
-2.49274 -1.50932 -0.0680383 0.0265913 -0.0858354 -0.042495 -0.452183 -0.366943 -1.94407 
-0.66675 -0.570571 -3.17225 -1.27671 -2.02602 -3.13142 -2.29268 4.83481 8.07042 
8.1263 8.26527 0.450746 0.166526 1.31337 2.72155 -3.19115 5.11388 6.87694 
-0.0698481 -0.000918923 6.92523 7.15415 -1.08151 -0.510265 -0.395347 14.5618 11.2357 
11.564 7.84142 7.72563 12.84 6.89821 13.3604 0.30607 0.174924 0.462224 
0.666323 1.55545 1.39665 0.318641 1.01572 0.540635 0.623915 0.276659 0.492356 
8.49909 13.2401 11.9009 -3.63419 -4.35305 -4.16715 -0.597889 -1.70592 -3.7729 
-2.61384 -3.44312 -3.8992 0.901789 2.31442 3.44779 2.4425 -0.189234 -0.115163 
0.00872833 0.0611094 9.68853 9.9971 9.85464 4.61161 12.4059 4.46022 -0.782689 
0.455282 3.56164 2.12366 1.03962 3.35522 1.30658 1.78408 1.67177 -0.101467 
-0.188425 -0.163793 -0.134892 -0.074652 -2.867 -3.83086 8.9775 7.63309 5.74227 
10.4624 1.5751 0.632149 3.26993 3.82001 1.02814 2.05874 -0.114015 0.167653 
0.150817 0.14658 0.276078 4.63834 6.83662 5.02405 10.5465 -4.48195 -4.10955 
-1.02761 -0.807763 -2.09654 0.403043 0.163101 0.339972 0.571934 -2.13593 -3.81009 
-2.34397 -3.98533 1.42631 -0.0851391 -0.0704274 -0.021491 0.0876311 0.713402 -3.98452 
-3.84109 0.482289 -0.21515 -0.367832 -0.696544 -1.95776 -0.117778 -1.35417 -3.34452 
-3.50877 -3.83866 -3.35589 11.5223 9.89853 10.2258 0.996923 -3.87467 8.43288 
4.51914 3.18354 3.72215 7.90622 0.120334 0.302656 -0.210933 -1.85451 -1.9971 
0.00808065 0.644402 -1.33581 -2.01742 -2.09383 -0.354839 -2.91301 0.111246 -0.0944567 
0.0983366 0.111264 2.94956 -0.920022 1.41609 -3.62128 -3.66178 -3.82 1.50104 
1.26474 1.12941 0.0942168 1.38618 0.189528 11.1704 8.20264 3.92652 5.30137 
0.741903 4.26488 0.710964 3.71029 4.37765 0.608516 1.1556 0.750392 -0.698583 
1.14796 -0.643528 -0.531074 -0.249199 -0.288184 -0.208934 0.92655 -0.117076 -4.40501 
-4.30347 -2.35454 -4.32635 -4.03189 -0.335515 1.18534 2.4344 0.255591 -2.09824 
-1.14366 -3.0726 -3.2415 -0.0232033 -0.0532319 -0.00895514 -0.0699002 -0.807477 -0.912632 
-0.638484 -1.78414 -1.14209 -0.707265 0.272001 0.170807 0.0244985 -0.669206 -1.86167 
-1.04609 1.13371 1.09972 13.0006 0.394019 6.76625 13.6753 13.2512 8.41886 
0.0615343 -0.0946295 -0.00710231 -0.000478659 0.0245494 0.343421 4.64725 -0.103753 -0.107648 
0.176224 -2.46325 -3.68664 -3.97701 -3.82147 -3.57464 -4.0741 -3.97704 3.90674 
0.258637 8.20613 0.0681604 -0.0571064 -0.323767 -0.406363 -0.222877 0.697212 3.97432 
11.1699 9.27733 12.0842 11.1498 -2.59504 -0.528863 -2.04672 -1.49017 -3.71835 
-3.61899 2.15656 0.212323 -2.81373 -3.25106 -3.10575 -2.98575 -1.22389 0.650728 
0.745096 2.15681 0.205439 0.397954 0.657355 1.33992 0.704655 -0.00616637 -0.459705 
-0.173388 -0.114271 -0.515 0.933086 2.24466 2.80254 0.880002 1.46853 0.605967 
-0.0922731 -0.143671 -1.16928 -0.507165 -2.47297 -0.373983 1.55679 2.72839 0.191368 
0.247701 0.219447 1.6712 0.614197 -1.71424 -2.44209 -0.59104 -2.30326 2.17984 
-0.288914 0.239115 0.595552 -1.38028 -1.56391 -0.597724 -0.516966 -3.97027 -3.63476 
2.98665 0.236946 -3.73616 0.238897 0.098963 0.0398139 0.104582 8.50872 -2.49835 
-0.847791 1.71584 0.628983 -0.0441045 -0.0776146 -0.059339 -0.053919 0.129733 0.0048935 
0.270572 0.177496 0.607441 0.393851 -0.531215 -0.85195 -3.9167 -2.09713 -2.81494 
-3.68588 -3.15459 0.608444 3.07498 -0.351359 -0.212507 0.0285146 0.00307917 -0.0238136 
0.19449 -0.0233548 -0.0169698 8.86847 0.0961552 0.35556 0.306491 -0.0127677 0.0444835 
0.355616 11.5728 4.35033 8.79954 -1.15312 -0.832999 -1.10546 -4.38433 0.317127 
0.217233 -1.45119 -0.406732 -3.33825 -3.9381 -3.54792 -2.38595 -3.74732 -3.77078 
2.34286 0.214396 0.622948 -1.78651 0.930187 6.46417 9.77243 9.99221 6.71907 
2.6646 10.5805 7.84814 -3.86858 -2.88822 -0.787313 -0.540756 1.28909 2.59402 
1.7531 1.60429 0.91611 2.89088 -0.198836 -0.0435041 2.13905 0.623786 1.00968 
8.05527 4.43013 6.35402 3.35679 5.87229 6.5976 -0.85276 -0.71559 -0.663364 
-3.91843 -0.330961 -0.393203 -0.414466 -0.797881 -4.05873 -2.60739 -3.26131 -1.2203 
-0.595798 -0.752002 -3.28654 -3.04315 -4.08714 7.1303 9.25508 11.2835 9.26784 
4.71234 4.58479 0.87267 4.08525 1.69209 6.0807 -3.50548 5.83854 3.73849 
10.9341 0.438215 0.420432 -0.0653073 0.769745 8.45676 -0.180699 -0.00956737 -0.874561 
0.256691 0.0842273 0.209754 -0.309573 14.1739 14.3093 14.6097 6.93071 7.16825 
-1.47548 0.152786 0.333883 1.15309 1.38064 0.30175 0.403118 1.27721 1.81476 
-0.834593 -0.367833 -0.728543 -1.05619 -0.859704 0.0953314 -0.11654 0.158435 0.221571 
0.164784 -0.123061 -1.54537 -1.13993 0.0792207 -0.544119 -0.229159 -1.46134 -0.0966291 
-0.285538 -0.133472 -0.396939 -0.0534598 -3.77485 3.21884 -3.87523 -1.13636 12.4917 
-1.97778 4.17949 6.13007 0.754011 2.49991 3.36154 6.59875 6.79647 -4.2296 
-3.71353 2.48393 2.79558 1.03816 2.31633 0.255241 0.531578 0.28982 0.116919 
4.25334 0.377721 7.55124 7.28787 7.14243 11.1748 7.82582 13.1632 11.2335 
12.2194 13.5265 14.2879 -0.692268 -0.534331 -0.323836 0.126074 2.06768 0.137187 
9.08961 6.38264 -0.454882 -0.991102 -0.1965 3.11452 0.13202 1.50902 0.29307 
1.04616 0.963061 0.310206 0.702348 1.02813 1.35426 1.04084 1.37565 0.344549 
-3.7052 -3.7796 4.17521 3.3248 4.59872 4.98524 3.47849 3.57506 1.58435 
0.448282 2.14233 -2.10009 10.9407 8.78371 10.6982 0.771431 1.34715 0.786255 
0.407529 0.343556 -1.09225 0.0745632 -0.239652 -0.967935 0.694072 0.922715 -3.09669 
2.61212 -2.40317 0.591081 1.44902 0.900454 0.324751 0.188063 0.619594 -3.35457 
2.99847 -1.79357 -0.6991 -0.393119 -0.823731 -1.51892 -2.6145 -3.86928 -4.25199 
11.5327 13.282 7.97895 13.8196 9.62578 12.7885 10.538 0.10565 11.4229 
12.2081 12.5515 12.437 -3.89301 -0.553884 -1.6806 -1.73081 -3.45688 -1.62357 
-0.510743 0.543959 -2.00076 -0.0922144 -1.01504 -2.30415 1.30268 0.907181 1.04025 
1.33858 -0.712743 -0.163971 -1.20378 6.44252 12.182 1.45617 0.625962 0.370684 
0.407575 0.917911 -1.83162 -0.705183 -0.299884 -0.324918 3.98253 5.98763 3.41872 
-2.72853 -2.73937 6.6166 3.14342 1.42685 8.18775 7.12436 0.0318028 -0.0277544 
0.0807322 -0.0575602 0.0692273 0.566434 0.1332 1.18083 0.973921 0.716624 0.748459 
-2.93636 -0.527101 -0.0983075 -0.118049 -0.430312 0.387451 0.708378 0.644596 11.689 
10.9027 11.1194 9.85721 0.842795 0.71392 0.100972 0.38512 0.388349 -0.111065 
-0.0418694 -0.233429 0.189819 -1.50284 -0.269278 -0.289064 0.467986 -1.85379 1.67189 
1.8461 1.21357 -1.09312 2.12291 5.12786 1.73282 5.16126 4.31093 2.19438 
0.051717 7.56263 -0.00863499 -0.482953 -1.3752 -0.531624 -0.0694125 -1.22063 -0.436905 
-0.233597 -1.63216 -2.34714 -2.91685 -0.416103 -2.82274 -3.57869 -3.54068 -0.145344 
0.157223 -0.282751 -0.184288 -0.290898 -0.632744 -0.329281 0.441338 1.10809 4.7117 
-1.03399 0.395056 0.966392 14.3644 11.1656 12.4326 -0.35687 -4.10144 9.8915 
10.243 -1.78457 -3.76131 -3.85058 -2.00577 1.33793 5.88999 0.621475 -3.29062 
-3.78747 -2.60965 -0.633964 -0.600526 -0.704074 -2.42286 -2.29666 -0.0372425 -1.24767 
-0.998385 0.48022 -2.19063 -1.44736 -0.721718 -0.754568 -0.658011 -0.362031 0.195068 
0.0311526 0.153155 0.758327 0.342233 1.31907 1.49389 1.10138 2.3473 12.6921 
10.4747 0.250636 0.526725 13.3222 10.7759 12.8749 12.5329 9.15999 5.13101 
9.40572 10.2831 13.3705 -0.0574946 0.00571124 -0.056198 0.168894 0.415377 0.0943838 
0.125972 0.198054 -2.58606 -0.623996 -1.48941 -0.358476 3.58105 3.76378 -1.31171 
4.40442 0.681339 0.308875 0.649077 12.9776 13.0959 11.2335 1.25728 0.263722 
-2.13713 -1.14972 -0.348858 -0.653428 -1.23378 -0.892835 -0.604488 -3.8349 -3.93076 
12.4434 14.001 14.2808 2.79549 5.70968 1.78303 1.30492 1.63825 -2.96437 
-0.465819 -2.61314 -1.0869 -1.9259 9.73956 9.90812 4.58495 2.81026 10.4601 
9.27925 10.5622 -0.746835 0.155625 0.75759 0.474637 0.0457079 3.07266 6.33324 
1.04613 -3.52177 -3.69471 -3.30045 -2.9835 11.2562 9.42138 9.43561 7.64729 
9.63847 9.20694 -1.12439 -2.05945 -0.403799 -0.635728 -0.528259 -1.84407 -2.38098 
-1.02615 3.35793 4.85323 2.96068 5.2072 2.45675 0.506062 4.22767 2.0954 
0.12794 0.956776 -3.93378 -2.29367 -1.33567 2.33415 -1.63031 -0.882128 -0.828372 
-0.691746 12.7851 11.8986 11.6451 13.2268 -3.36781 -4.17805 -2.92924 -3.95549 
-3.79175 -0.621875 -0.384767 -2.45665 -1.33889 -0.224317 8.82203 4.46637 -1.18041 
11.0233 10.3191 5.78031 12.749 13.5275 13.7162 0.933631 5.13207 0.210874 
0.555584 -3.98454 -3.85481 -0.649896 -3.5342 -1.76239 -2.48977 -3.54401 -0.615307 
-2.89662 6.35311 -2.95246 -0.556799 -0.300149 -2.2086 -1.43 -0.61588 -2.77661 
-0.472844 -1.35728 -2.8128 -3.90515 -3.88933 -2.59248 -0.689492 10.7031 9.39743 
13.041 6.50403 9.02135 10.3779 11.5964 -0.413549 -3.89801 -3.95391 -3.6704 
-3.80061 -3.338 -0.363646 -0.101201 0.569845 -1.06115 -0.369757 -0.035357 -1.47357 
-0.681732 0.191671 -0.0165361 -3.86573 -0.482582 -2.81878 -2.22535 -3.16243 2.36183 
3.77815 3.46801 1.24859 5.50829 -2.2702 4.50896 -0.985589 7.91655 0.0683499 
5.80318 5.11898 0.258249 0.467049 -1.24607 -0.800359 -1.4362 -1.25288 -0.544814 
-3.56698 -1.7677 -1.81351 -1.69607 -0.801175 0.0396624 -2.60211 -0.537551 -0.613819 
-3.53003 -2.943 -1.14162 0.0159305 -0.0313967 0.0951481 0.211952 0.116494 0.167367 
0.204987 0.012094 2.61799 2.3748 1.2291 0.628464 5.59622 3.29035 4.86608 
3.33265 7.75969 2.35572 12.3198 4.50354 2.39731 7.52863 0.676795 0.288599 
-0.150402 0.538522 0.817759 0.17336 0.0396886 0.271735 -0.026046 -0.769346 -3.7093 
-0.136673 -3.72059 -2.45481 -3.97314 -3.10336 -2.55092 0.390531 5.97712 4.31805 
4.48661 4.58238 5.09969 4.13376 6.11338 4.56285 6.72985 0.381916 2.52737 
2.46616 1.16241 0.785607 0.94685 1.7041 2.33313 1.93502 1.55271 0.526379 
0.378741 -0.0666794 -0.237814 -2.54337 -0.314499 -0.25035 -0.241249 -0.0939981 -0.149124 
-0.337171 -0.0401847 -0.190357 -0.121209 -0.483118 -0.254784 -0.444867 -0.412995 -0.412485 
-0.244696 -1.07879 -0.496208 -0.428594 -0.465086 -0.817113 -1.07021 -3.5818 -2.24404 
-3.25901 -2.68453 -2.6664 -2.95334 -0.617778 -0.0552763 -0.237183 -0.919152 -0.774021 
-0.00037262 -1.22345 -1.05672 -0.394819 -0.83376 9.36934 8.76871 3.42865 8.95316 
8.95244 9.22014 6.82844 5.72761 5.30925 1.32207 2.81292 -1.29977 0.635556 
-3.83644 -4.09012 -2.81447 -2.89562 -2.74652 -3.1716 -3.10636 -1.79832 -2.46699 
-0.273094 -2.69299 1.01802 0.0503446 1.07278 0.0208737 1.09173 0.0382933 -0.0556804 
-0.00160721 -3.64574 -0.391403 -1.11789 -4.08619 -4.05094 -4.0298 -3.67183 -3.03984 
-1.79498 -2.92289 -3.35495 -3.43961 -2.14228 -2.42318 -1.18876 4.26617 -2.42269 
5.29684 0.942696 2.72544 5.59986 3.2561 5.69432 5.00607 2.50107 -0.447055 
-0.221586 -0.660648 -0.30398 -0.239702 -0.20462 -0.255367 -1.33839 -0.644126 1.38101 
3.72816 1.64071 3.17229 3.13903 1.54284 0.192799 0.323541 -4.14227 -4.27906 
-4.45662 -4.3167 -3.47647 -4.02356 -4.39068 -3.57195 -4.09364 -4.27541 5.7878 
0.703894 7.30675 7.91299 0.725523 1.39684 0.825741 0.319965 0.357479 6.64152 
1.87285 -0.68179 2.86922 4.16829 0.461713 6.81298 -3.5604 6.1208 4.17577 
-0.342848 4.88277 3.15582 2.75714 8.22763 5.39533 3.60443 0.673969 0.222771 
0.266876 1.33109 0.272085 0.896312 0.737812 -0.0843967 -0.17107 -0.189105 -0.423279 
-0.754437 -1.19936 7.02416 2.49385 0.865147 4.34679 3.64962 6.72358 0.0874467 
1.16668 0.0169472 0.985781 0.334246 0.0953273 0.282108 0.157319 0.0348035 0.152038 
0.0527793 0.0696036 0.0789328 0.120006 0.0959074 -0.440394 2.56486 0.559107 -2.12076 
6.10258 1.69481 -3.11057 -1.5478 -2.37463 -3.59005 -3.7066 -3.91921 -3.68589 
-3.99306 -3.71314 -1.56301 3.96551 4.7789 0.384897 -2.23829 1.15772 -1.08896 
-1.65889 0.909335 -2.50486 -1.96357 -1.34708 8.26736 7.83594 6.01085 7.16614 
11.7102 11.5121 12.7144 10.4038 9.51707 9.50249 -0.53024 -0.856909 -0.600664 
-0.693825 -0.512223 -0.875836 -0.665285 -0.951039 -4.14373 -2.68332 0.0789132 -2.02992 
-1.97274 -1.57266 -3.84153 11.5335 8.12022 12 11.9306 10.1339 9.86787 
8.86226 12.4738 0.904968 -0.650656 -1.792 -1.60759 -1.61014 -2.41513 2.24762 
1.8055 0.994115 1.42102 1.52808 2.48855 0.872344 2.3875 1.2874 1.32323 
3.25489 2.23737 6.0685 -2.79758 -2.29654 -3.0292 -0.869336 -1.4964 -4.1574 
-3.60933 -4.10538 -4.13237 -3.30649 -2.81698 -4.037 -4.03178 -3.9428 -2.8568 
-1.1041 -4.17013 -3.98899 -2.92689 -3.77541 -3.13573 -2.90759 -2.94734 -2.29617 
-2.59111 -1.09215 0.116295 3.66334 0.201558 -0.583836 0.667664 1.45633 2.12152 
1.51184 1.42523 0.2879 0.541016 3.87444 -3.12161 -1.5848 4.40056 5.65936 
3.32276 0.218466 0.600836 -0.0222933 0.0513188 -0.0114449 -0.0461439 -0.028408 0.0757737 
-1.23668 0.216395 -0.237694 0.252985 1.01473 0.630822 5.31701 3.8965 9.18206 
11.0874 2.09073 3.35772 -0.18844 4.62422 -1.61566 -1.91399 -2.12432 -1.53954 
-4.29568 -4.39353 -2.90617 -2.88192 -3.95973 -4.21368 -4.0357 -2.90578 0.375418 
0.11961 -0.0377654 0.0296736 0.0670025 0.178242 0.172918 0.732585 -2.26102 -0.756855 
-3.65215 -0.762381 -3.05617 -4.13503 -0.57853 -1.98997 -1.57184 -0.97361 -0.842339 
-0.186864 -1.49802 -0.974719 -1.51717 -0.637034 -0.610041 -0.600301 -3.47817 -2.4922 
-0.262444 -4.12136 3.82833 -4.14481 -3.2182 -4.07486 -1.02727 -3.13598 0.760557 
2.06052 -2.2543 -3.30838 -0.174858 -0.0535856 -0.161966 -0.0459981 -0.260493 -0.546038 
-0.27492 -0.175269 -0.196116 -0.205948 -0.192302 -0.448482 -0.628489 -0.842709 -0.0347723 
0.0509232 0.147619 0.0525712 0.314825 -0.470103 1.2858 2.53585 0.347876 1.20046 
1.27005 1.44654 0.502313 0.328026 0.712489 0.059548 0.42594 0.36577 0.201567 
0.977072 0.378963 1.08124 1.30124 0.257427 0.348657 0.300698 0.372406 -0.0515601 
0.0670219 -0.347871 -0.0587918 0.0480861 0.0722562 0.0368046 -0.0462793 0.635661 0.471622 
-0.331228 -0.366842 -0.105602 -3.60808 -0.373351 -0.41996 -3.80251 -0.429139 -3.60694 
1.86021 0.543643 0.899244 0.66803 0.210168 0.430203 0.550802 -0.624907 -0.534485 
-1.38627 0.577158 0.00561083 -0.483267 2.3725 1.21168 0.0535329 -0.119841 0.00197907 
-4.24118 -4.28658 -3.95567 -3.90698 -2.5342 -3.73213 -3.45184 3.73683 4.22785 
2.16767 2.00646 2.26472 1.51539 1.3054 0.666961 0.356139 1.16429 -0.614799 
-1.86596 -3.23064 -0.152872 -3.2286 -0.330967 -2.23954 -0.615506 0.578145 -1.85266 
-1.92758 -0.653085 -1.41958 1.11745 6.33562 6.70507 3.41215 8.20801 6.77544 
6.4535 5.74965 5.58615 3.88729 3.49086 5.08106 5.52665 1.85194 1.35166 
-0.547412 -0.466864 -0.685307 -0.686958 -0.384592 -0.645684 -2.26672 -2.40386 -0.421951 
4.43654 10.5655 10.3059 5.06303 5.81907 8.41729 10.8255 10.4938 10.2049 
9.11324 9.12407 -3.46101 -3.77043 -3.75182 -1.94796 -3.28796 -3.03614 -2.41314 
-2.84236 -1.1045 -0.760768 -0.379853 -0.726407 -0.678156 -0.18855 -0.628346 -4.04822 
-3.91324 -3.51679 -3.94265 -3.08872 -2.78919 1.42049 -0.00896722 0.317142 0.673811 
0.752823 0.826077 1.13641 2.03161 -0.14494 -0.703135 0.162442 -2.73955 2.96313 
0.238623 0.619908 0.211507 0.132867 0.205156 0.121032 0.920106 0.254811 -3.45371 
-3.5461 -3.37931 -3.2554 -3.21486 -3.1557 -3.91254 -3.96303 -0.105841 -0.25101 
-0.164681 -0.0879653 0.0421085 0.0322249 -0.108959 3.41125 -0.363253 0.708677 0.190535 
-0.0851255 0.0173063 -0.319957 -0.682185 -0.497453 -0.0714596 -0.391899 0.457862 0.0331324 
-0.0227034 -0.42655 -0.852014 10.8099 -1.45795 -1.46285 -1.2899 -4.31512 -1.56175 
-3.73259 -4.16918 -3.94943 -3.49875 -3.70122 -3.09103 -3.77211 -4.03878 -2.00135 
-3.8626 -3.69701 -3.46581 -1.57207 -2.56081 -1.30093 -1.86812 -0.525184 -0.717651 
-0.452802 -0.346643 0.0312032 0.189251 -0.055407 0.893899 0.0799807 0.0255012 0.0579615 
10.6915 13.6558 9.46206 13.1226 6.92714 5.7989 -2.63167 -3.54626 -3.54186 
-0.820731 -0.822108 -0.481385 -3.71503 -0.0887664 -1.04955 1.87212 3.7382 3.98699 
2.09797 2.14688 -2.37697 -0.685216 -0.100028 -1.59849 -0.834225 -2.48021 -0.90326 
-1.19429 -3.44314 -0.463154 -0.922947 5.95996 3.29669 9.90408 3.64638 2.83817 
6.65741 5.09803 6.98362 6.16687 5.36419 1.75507 1.76922 1.86249 -0.670485 
0.857148 -1.79928 -3.58758 -0.417631 -0.389501 -0.412309 -0.411597 -0.646088 -0.860262 
-3.87741 -3.69038 -3.47756 -3.30512 -3.21449 -3.15366 -3.33384 -1.09673 1.09178 
-0.00464305 -1.35883 -0.18484 0.702281 0.210343 0.681985 -2.55171 0.915689 0.834863 
3.35406 1.00248 -0.466346 2.53252 0.679473 4.58048 0.608349 0.16647 0.37807 
-1.58373 -0.918681 -0.442611 -0.628137 -1.77048 -2.34932 -2.42174 -1.96427 -0.550983 
-1.6836 -0.230063 -2.94103 -2.65938 12.4987 12.0581 11.805 -0.00251764 0.0313636 
0.0124397 -0.0251567 -0.0245043 -0.092321 1.9343 1.11256 2.28674 2.82452 2.8432 
1.08405 1.82325 2.31628 1.8807 -0.902978 0.851901 0.0363413 1.12347 0.585399 
0.751411 -0.221927 2.03989 -1.04223 1.24155 -3.5529 -2.99348 1.04528 -2.22282 
-1.6694 -1.38482 -1.19082 -1.52819 -1.19896 -3.63272 -3.64925 -3.70713 -3.79269 
-3.59555 -3.54343 -3.518 -3.55661 -3.51703 -3.82845 4.09428 5.75501 4.28281 
-2.27093 -3.22382 -2.7951 -2.94872 -3.76072 -3.26347 -2.54118 -2.13406 -1.85647 
-2.76592 -0.597042 -1.42 -2.11941 5.70622 1.70242 8.52607 0.310816 6.19837 
1.48371 0.00217586 1.4705 -1.80368 1.99707 -2.61944 -3.30557 -2.11782 -1.84475 
-3.5578 -3.11181 -4.13834 -4.15906 12.4053 7.08543 6.87231 6.61958 -1.48907 
-1.62458 -0.477519 0.0552205 5.55992 4.3065 1.35548 3.52316 5.63636 0.374718 
0.471652 -3.02577 2.76644 1.38646 0.337072 0.849235 1.77076 0.476978 0.690782 
-0.699013 -0.0986102 -0.0349307 0.0224595 -0.189798 1.20828 4.15854 0.665721 0.99488 
2.1848 3.11619 3.04287 3.40363 3.78505 3.08009 3.18007 3.56704 -0.544785 
-2.23347 -3.76262 -4.21482 -3.3729 -3.67612 5.18926 4.65539 5.53134 5.84383 
5.14517 -4.05662 -4.19129 -4.17054 -3.55929 -2.54672 -4.01445 -4.13796 -4.12122 
-3.47135 3.3532 2.6781 2.30516 1.58379 2.40956 2.10597 3.77822 1.32074 
1.1342 -0.443039 0.633469 -0.686467 -4.0206 -2.97195 -3.48525 -3.83283 -3.1432 
-3.64158 -3.50159 -3.49648 -3.27967 -0.98449 -3.07251 -1.23906 -0.598271 -0.362991 
-0.575449 -3.10228 -0.468081 -0.533778 -1.21706 -0.723697 -0.30369 -0.479262 -0.286132 
3.15215 3.41602 3.94975 4.32087 -4.05031 -0.714862 -0.813413 -3.29797 -4.39853 
-2.47025 -0.723928 -1.0726 -3.62564 0.0394015 -0.00876638 -0.0852057 -0.281259 -0.361419 
-0.534449 -1.74975 0.153378 0.00238775 0.977998 0.652605 0.73615 0.728579 1.20945 
-0.583992 -0.982434 -3.45194 -0.075211 -0.678898 -0.84836 -0.582633 -0.623502 -0.631006 
-1.01726 -1.11589 0.0630627 0.0073619 0.0483296 -2.80487 0.798908 -3.85776 1.71939 
-1.18101 -1.68903 -1.89243 -1.05773 -0.310904 -2.73183 -0.907097 -0.699983 -0.722204 
-0.238401 -0.82896 -0.277185 -0.331456 -0.390972 -0.526076 -0.462892 -0.413043 -0.344052 
1.2401 0.53836 0.39622 0.185582 0.693521 0.341942 -0.21186 -0.301471 -1.87094 
-2.28419 -2.17227 -3.10412 -0.948849 -4.18714 -0.929882 -2.76463 -0.668571 -0.54971 
-0.387889 -2.95003 -3.1166 -2.0667 -3.62271 -3.91691 -4.09257 -4.16272 -3.97196 
-3.41823 -4.21349 -3.11421 -3.35963 -4.17131 -3.46213 -3.40996 -0.42156 -0.40119 
-0.435074 -0.447476 -0.591612 -0.37758 -0.355107 0.0583377 0.123499 0.00156338 -0.149017 
0.103276 -2.21942 -3.77773 -3.88744 -3.34949 -2.49147 -3.62836 -4.29882 -2.78724 
-0.692202 -4.27341 -0.508496 -4.32247 -4.07192 -3.21666 -3.22979 -0.761337 -2.0948 
-1.33849 -0.994344 -0.146847 -0.889136 -0.670186 -2.64472 1.4335 -0.207495 -0.977769 
-0.408012 -0.791743 1.07519 -0.202923 0.00864132 -0.0383533 1.05204 0.394809 0.518489 
0.137879 0.729098 0.39034 0.57046 2.20854 -0.19864 -0.172559 -0.141914 -0.276643 
-0.157195 0.00779478 -0.181548 -0.225724 -0.223381 -1.59756 -1.48431 -1.12167 -1.75564 
-2.10126 -1.86299 -1.61114 -1.31977 -0.866454 -1.97581 -1.86938 -0.182048 -2.19058 
0.371842 0.938953 0.123314 0.677005 -2.00397 -2.33425 -1.98372 -2.37906 -2.32361 
-3.52635 -4.11722 -4.14885 -4.0528 0.826589 0.710843 0.689708 0.449282 2.91481 
-0.539233 -1.87285 -0.373409 0.242013 0.319762 0.322661 0.320306 0.286624 0.275446 
0.439025 0.333748 0.534193 0.702621 -2.8366 -1.4681 -0.316058 -2.10541 3.61108 
11.4954 -0.546234 -3.9301 -0.70538 -0.469522 -2.04679 -1.15747 -2.76091 -1.05883 
-2.50229 -3.85312 -3.78366 -3.40699 -3.21542 -2.76336 -3.65846 -3.23041 2.39315 
1.86565 3.62179 0.929259 0.214625 0.366279 0.0978021 -2.92787 0.103631 -0.762804 
-0.642019 -0.560045 -0.4589 -0.643764 -0.56179 -0.58468 -0.503432 -1.05834 -0.264324 
-2.56246 -0.255206 0.0603917 -0.521778 -1.5861 -0.742787 -1.12263 -0.265372 -0.423844 
-0.624542 -1.0757 -1.47939 -1.51884 -0.419307 -0.103736 -0.127615 -0.125853 0.0835917 
0.0379762 0.104526 -0.16991 0.128464 -0.808139 1.44818 -0.335718 0.00485213 -0.118862 
-0.270799 -0.146275 -0.139614 -0.204386 -0.262271 -0.133523 -0.0500923 -0.162085 2.96468 
1.78439 8.07559 -0.0585117 6.90698 5.38196 7.04932 8.2221 7.09145 3.58416 
5.49969 1.35448 1.23627 1.5668 1.61776 1.65734 2.13038 0.478264 -3.22331 
-4.19975 -2.80485 -3.60481 -4.04658 -4.01519 -3.89348 -2.0078 -2.86582 -2.41457 
-2.94911 -2.32072 -2.34996 -1.05512 -0.73404 -1.07327 -2.00652 -2.62632 -1.22466 
-3.43082 -4.21067 -4.27196 -3.65328 -4.06591 -3.45226 -4.34799 -3.39259 -4.20902 
-4.23628 -3.37199 -3.35525 -2.95108 -2.44693 -3.70719 -2.51614 -0.0732201 -2.98282 
-2.56388 -3.85055 -0.330094 -0.533394 -0.582237 -0.295884 -0.235806 -2.11618 -0.700424 
-1.66386 -3.29462 -1.23379 1.70135 -2.69033 -1.79933 -1.53996 -0.48007 0.0977805 
-3.62396 0.346616 1.4788 1.02716 0.693984 1.05611 0.570098 -0.0311266 1.91581 
1.34834 0.357809 0.242574 0.0494263 -0.51492 1.50057 -0.196826 0.304985 1.76406 
7.35176 3.46808 -1.50496 5.15551 2.89078 3.19469 3.10869 3.17952 2.79495 
-3.42974 3.28128 4.84318 2.38003 1.65993 0.423963 0.304858 0.442436 0.864446 
0.882753 0.233077 2.56261 1.49241 -0.453514 -2.84956 -3.6205 -3.95 -3.98262 
-2.24964 -3.9391 -1.33491 -2.9201 -3.07081 -0.316131 -1.32883 -0.443442 -0.96734 
-2.15026 -3.6225 -3.19554 -3.1404 -3.43845 -3.31965 -3.56749 -3.56512 -3.11932 
-0.716301 -1.9131 -2.25735 -2.26223 -1.06274 0.549925 0.427994 0.400352 0.527574 
0.558739 0.683484 2.79178 1.18793 -0.0930375 0.301273 0.0186469 -0.922116 7.21984 
3.65635 5.83591 4.0218 4.94922 4.85196 4.16295 3.99548 3.61075 5.13851 
7.32078 5.82321 6.61258 10.1999 5.95734 -3.28674 -3.67407 -3.08922 -3.14175 
-3.75272 -0.139018 -3.0249 -3.86234 -3.82592 -0.726971 8.25081 2.19186 9.70735 
8.38436 9.16421 7.94415 -0.921613 5.08197 -0.289276 -1.23642 -0.782968 -0.734954 
2.64451 -0.525852 -0.90337 -0.970099 -0.466453 -0.50056 -0.437998 -0.300088 -0.525646 
-0.21049 -0.730477 -2.05101 -2.9493 -2.99689 -3.37817 -3.65996 -3.86292 -3.89397 
-0.326558 -0.176554 -0.319067 -0.261112 -0.207651 -0.171747 -0.265361 -0.398781 -0.401984 
12.2254 4.87037 -2.46836 -3.58573 -2.77779 -3.02424 -3.88397 -2.9658 -2.67248 
-2.57514 -0.313473 -0.200232 -0.56679 -2.06191 -1.47304 -1.37463 7.7924 9.27233 
8.26759 4.22166 7.53284 5.56367 -0.19598 1.48163 0.479538 0.602088 0.55585 
-0.676466 -1.25257 -1.07745 0.0336725 -0.478492 -0.438031 -0.459701 -4.33072 -3.81654 
-4.26592 -3.6692 -4.32947 -4.31939 -4.33897 -2.99491 -3.97013 -2.50423 -1.69885 
-3.13846 -3.15584 -2.78651 -2.88842 -2.25967 -3.80611 2.55975 -2.38912 9.3869 
-1.31241 6.90314 11.851 11.322 0.993047 1.85198 1.25316 0.917698 1.37028 
0.880571 0.667981 -0.14521 -0.090502 0.815813 -0.476767 -0.088077 0.353295 3.731 
1.25115 3.26083 3.88034 1.23192 -3.95549 -3.4995 -3.81765 -3.89878 8.11073 
4.88312 0.648635 6.85187 4.52871 6.82235 1.14877 5.40483 0.584888 1.68201 
2.84076 2.7974 1.71496 1.76982 1.20454 0.784915 0.925373 -0.986735 -1.63244 
-0.803382 -0.135344 -0.153473 -0.996193 -0.422009 -0.182685 -0.505281 -0.390016 -3.18737 
-1.28989 -3.20132 -3.25727 -2.97895 -2.96946 -3.40834 -3.45354 -0.262249 -0.0945392 
-0.104181 -0.196467 -0.182463 4.48689 0.256172 -0.728085 -0.133103 2.44415 -0.629072 
2.60466 4.8552 5.21397 4.00259 -1.14756 -1.62018 -1.94368 0.219421 0.476615 
0.332652 0.172537 0.420346 -4.1107 -4.26634 1.77012 -4.25673 -4.09057 -4.15542 
-4.18525 -2.17589 -4.28128 11.5616 8.84842 5.06171 5.12562 3.55263 10.1254 
8.81148 6.49206 10.1563 8.12157 10.6411 -2.43409 0.567369 6.85394 -0.925802 
-3.73062 -1.03659 2.88079 3.22938 4.70258 0.159916 0.185878 0.00314945 0.0835412 
0.151188 0.54237 0.480498 0.141369 4.10528 6.91782 7.5594 11.3938 6.54881 
6.12955 8.4882 13.4929 9.76523 8.52998 0.145455 0.836557 1.58986 0.937776 
0.103156 0.15973 1.20401 0.344816 -0.740706 -0.691724 -3.95037 -2.01613 -2.14083 
-3.26742 -2.63493 -3.30715 -2.43642 -1.89259 -3.1771 -0.333049 0.746562 -0.484872 
-2.39384 -2.07176 -0.194259 -2.71774 -1.63606 -2.68685 -1.36466 0.098187 -1.44065 
1.67107 -1.44135 -4.15097 -4.06359 -3.65237 -3.97744 -2.53349 2.43259 3.70465 
6.5711 0.426593 0.900038 2.25618 -0.183108 -0.357698 -0.807576 0.0327591 -3.25794 
-2.12501 -3.92069 0.515982 -3.80442 -3.12028 -4.02 -4.14547 -4.17309 -2.4033 
-3.31814 -0.789549 -2.67046 4.77797 4.28925 5.74223 3.52401 0.509529 0.134546 
0.214479 0.170944 0.850911 0.236224 0.217236 0.225285 0.724937 0.295263 0.573079 
2.70556 -0.514244 -0.0842975 2.7976 1.76114 1.4523 -3.44138 -3.04155 -3.20313 
-3.24284 -3.03387 -2.97643 -3.06645 -2.52221 -4.11413 -4.01496 -2.88201 -3.05024 
-4.14682 -4.15023 -4.11836 -4.36206 -4.13606 -4.3243 -0.147818 -0.228806 0.89232 
-0.910538 -0.248707 -0.199962 -0.253767 -0.39936 -2.14747 0.124242 -2.33003 -2.49919 
-2.54781 -2.01989 -1.27878 -3.25484 -3.10256 -3.09838 -2.6536 -3.24517 -3.33542 
-3.27821 -3.06036 -3.133 -2.99969 5.75253 9.0537 4.85107 6.71695 13.3119 
5.14168 6.23914 11.0085 5.36616 6.31821 1.76782 1.72493 2.52414 1.10907 
0.0972708 0.824642 -1.08062 -2.04059 -2.82253 -3.17719 -1.012 -2.96579 -2.41802 
-2.81848 -3.50558 0.0895389 -2.70844 -3.45409 -2.65305 -3.68644 -3.74404 -3.95277 
-2.4273 0.61974 -3.04855 -0.808307 -0.638009 -2.34065 -3.70102 -2.16993 -2.53193 
-3.41679 0.821685 0.814705 12.1686 0.766731 1.2181 2.7547 4.11278 1.28971 
2.89421 2.28436 1.50456 2.40335 0.106834 -0.071895 -0.356488 0.287271 -0.249253 
-0.0537994 0.156921 0.0610303 0.53366 0.147422 0.098731 0.593066 1.36794 0.227408 
0.913771 -1.22045 -1.29732 -0.696945 -0.769855 -0.852427 3.90098 4.48769 3.80437 
3.7506 3.69065 6.57066 2.92318 0.326698 0.978634 0.441828 0.758757 0.590889 
0.52418 0.700153 1.59978 -1.23312 -1.54918 -1.66066 -0.0651303 -0.244529 -0.235863 
-0.836404 -0.201443 -0.500315 0.0644711 0.0111175 0.0148646 -0.589177 -0.675654 -0.110907 
-0.355202 0.246203 0.554255 -1.81712 -3.32589 5.04926 -0.906022 -0.423536 -1.3514 
0.677346 3.32669 0.639925 -0.0732128 0.582491 0.641841 0.361196 1.09522 0.176933 
-1.55992 -0.564307 0.148852 1.82961 -0.677383 -0.413758 0.832185 1.44185 0.533314 
0.883088 0.69819 3.7558 0.493702 2.45986 4.39373 0.220121 0.235907 0.544439 
0.113649 0.26868 0.363617 0.492012 0.297817 0.641045 2.14123 1.41729 0.872359 
1.89515 1.03603 1.23533 0.451967 0.879683 1.55945 1.99465 -0.570825 -0.492106 
-0.535034 -0.775876 -0.704731 -0.635952 -4.24721 -1.01894 -1.18087 -1.08149 -2.70675 
-0.820723 -1.33227 -1.12476 -1.11216 -0.719559 -0.808343 -3.39577 -3.77413 -0.557111 
-1.40595 -0.919599 -0.316957 -0.772325 -1.13568 -1.97587 -4.33502 -0.688202 -3.00919 
-2.61686 -1.01553 -2.6514 -2.83541 -2.06797 -3.88423 0.209705 0.0973307 0.0762781 
0.477457 0.566571 0.22483 0.191048 0.148241 -0.0248401 10.9023 -0.111754 -0.566082 
-0.228784 -0.299922 -0.229152 -0.30029 -0.925172 -1.07681 -1.09914 -0.781117 -0.14436 
-0.771308 -2.14891 5.39579 4.65706 0.766379 0.115968 0.152419 0.129343 0.1195 
0.130949 0.103056 -0.261328 -0.660278 -0.494606 -0.161287 -0.331941 -0.697003 -0.462309 
-0.661268 3.66381 4.65071 3.26048 2.47798 2.70424 3.09828 2.31354 2.39222 
2.20113 7.28832 5.56671 6.29575 8.25664 2.45598 -1.73293 -0.100627 0.272123 
3.26602 1.35641 0.014186 0.0318926 -0.490641 -0.362927 -0.768577 -2.8088 -1.80869 
-0.270393 -0.19104 -0.52269 -0.837957 0.136061 1.74724 3.28053 3.23562 -1.13072 
-0.891288 -0.573465 -1.43929 -1.59904 -1.29121 -0.734425 -1.77227 -0.847115 -0.966034 
-0.544158 -0.552682 -1.09925 -0.533677 -0.365893 3.79721 5.08727 -0.556192 5.47373 
-0.575509 6.29319 3.18608 -0.360268 -1.89658 -1.08424 -2.70459 -2.71538 -3.80526 
-4.16243 -4.23639 -4.12323 -4.26772 -4.25949 -3.92386 -4.18838 -4.25477 -4.04253 
-3.98768 -2.82708 -3.67654 -0.457855 -4.04477 -2.67633 -0.234779 0.198579 -3.3898 
-1.1886 0.102867 0.696153 0.194393 -0.751351 -1.25817 13.8356 -2.16683 -4.12967 
-2.7768 1.24787 0.414237 0.863423 0.694631 3.19065 1.68001 2.10037 -3.76822 
-2.946 -3.53428 -4.03127 -3.3132 -3.40345 -3.24126 4.21825 -0.62973 1.66996 
1.01979 2.81529 2.71356 -2.71084 -1.95279 -2.57926 -2.5082 -0.160393 -2.25796 
-2.29054 -2.75395 -2.62917 -0.840212 -3.16332 -2.40605 -3.88222 -0.855608 -2.98733 
-0.752603 -1.95466 2.20188 0.421676 0.71152 0.96597 0.187646 -0.711329 -0.687261 
-3.49477 -0.754888 -0.625189 -0.682368 -0.646405 -2.17288 -0.321031 0.655289 -0.737406 
0.6581 1.00396 1.08416 0.353548 3.05515 4.09945 2.29579 -0.697237 2.62738 
3.83064 -0.605704 -0.678961 -0.88686 -0.897154 -0.645748 3.04918 6.2328 4.77782 
2.8492 -2.48447 -0.580446 -0.621372 -0.705967 -1.67743 0.0183569 -1.03919 -0.654868 
0.169143 0.0284447 0.0340522 -0.0360013 1.89021 0.186367 0.185464 3.21502 4.88863 
3.33086 2.82884 2.19936 2.98893 5.72646 2.35829 3.64163 -3.34505 0.274317 
1.24712 1.63447 0.371709 1.0537 0.566194 0.421749 -3.65694 -3.91575 -4.1444 
-4.21927 -3.63534 -3.58018 -4.04389 -4.09393 -4.35221 -3.59486 -3.92094 1.6752 
-1.57593 -1.93246 -1.88516 -3.13839 -3.27739 -3.42474 0.262985 0.219178 0.384857 
0.895225 -2.41055 -2.77655 -2.85169 -3.19773 -2.48481 -2.15882 -2.59668 -2.73343 
-1.95931 2.92488 1.97839 1.92779 4.81533 3.69818 3.41868 3.9521 -0.344853 
3.95798 -1.00007 -0.782214 -0.4142 -0.0769359 -0.150668 -0.59175 -2.78463 -0.515543 
3.25434 0.811445 1.90377 2.04888 2.71633 3.32749 1.22887 2.16471 2.95626 
0.449765 3.06213 0.617396 1.98535 1.19487 -1.91797 -0.626541 -0.744141 -1.54318 
-0.961023 -0.404935 -2.08689 -0.690588 -0.718638 -0.757594 -0.542588 1.05762 0.459496 
0.935033 0.417955 0.202981 0.188512 1.60381 1.58021 -0.658966 -0.751672 -0.617981 
-0.712199 -1.30621 4.17311 3.66337 4.58802 3.59514 3.07904 3.25512 -0.843459 
-0.86873 -0.648433 -2.9402 -0.843958 -2.69476 0.269186 0.15846 1.07464 0.425205 
-0.770157 0.9392 0.590996 0.684997 -0.565234 5.06448 4.9996 5.37691 4.7243 
5.3724 0.466012 1.53736 0.22515 1.13471 0.860974 1.62783 0.200421 0.240017 
0.582021 0.895344 -0.108769 -4.11786 -3.9382 -4.24525 -4.11864 2.65727 2.02908 
1.36646 0.965603 1.80226 0.8312 0.493536 4.52718 3.05353 0.61519 0.973235 
2.55474 0.497735 0.540924 -0.0406834 -2.16603 -2.25383 -2.39293 -2.23475 -0.782334 
-0.78488 -0.678933 -0.860071 -0.957043 -0.493332 -0.467205 -0.936698 5.57558 -0.210241 
-0.0865373 -0.0674587 -0.396861 -3.39737 -0.476054 -0.369685 -0.327986 -0.407179 -0.228355 
-0.339844 -0.561629 0.701087 -1.90417 -1.34927 -3.09798 -2.46888 -2.79619 -1.12258 
-3.8549 -0.915388 -1.78092 -1.57461 -3.52657 -3.92329 -3.84986 -1.9514 -3.9072 
-3.79987 -3.96777 -4.24856 -4.26668 -3.90271 -4.44395 -2.60633 -2.76129 -0.382642 
1.12393 -2.70836 -0.885057 0.140907 -2.40021 6.51925 1.67694 -0.156925 -3.24436 
-2.88574 -2.41158 0.899783 1.1987 0.150719 -1.63691 0.417187 2.62592 1.56889 
3.05388 1.84984 1.89901 1.98687 -1.69442 -3.58044 -3.61903 -3.75678 -2.67977 
-3.01026 -2.8169 -3.25852 -3.24915 0.418662 -0.205407 -0.251013 -0.161585 -0.127114 
-0.934955 -1.17054 -0.712368 -0.776374 -0.410524 -0.304389 -0.458453 -0.731071 -1.49384 
-0.478846 -3.34464 -1.6657 -1.59219 -2.03024 -1.32399 -0.305395 -1.13772 -2.72522 
-1.6161 -3.89617 -1.82908 -3.86919 -3.384 -2.57248 -3.44954 -3.6146 -2.99335 
-1.45948 3.99407 -3.87377 7.10422 -3.33396 0.192964 0.295512 0.253616 0.213226 
0.355196 0.141748 0.227134 0.387837 0.428204 2.11244 3.91275 1.86388 2.63687 
2.35741 2.01422 1.82052 1.93566 1.97424 1.78054 6.50564 7.29615 8.92528 
5.83332 -0.67099 5.95585 -1.53965 8.07363 10.4803 7.54065 1.24642 0.831512 
1.39735 1.0428 2.03756 2.0782 1.65994 -0.582779 1.30614 -0.336507 1.94752 
1.00294 3.87015 0.891358 2.0317 1.26987 -0.118818 0.852463 -0.141103 0.208008 
-2.0983 1.69987 1.79333 1.36625 0.495905 0.865443 0.463714 1.48938 1.49502 
0.880096 1.85789 3.18492 2.08033 -0.755222 -0.851748 -0.49674 -1.78381 -1.8222 
-0.741625 4.47455 3.74712 2.15917 2.89254 0.671651 0.195618 0.329398 2.16381 
0.45673 1.93971 0.992044 2.16336 1.03184 1.97493 2.13541 3.37676 0.682498 
1.53604 1.5506 2.32255 2.01581 1.83499 1.45117 1.09985 -1.46491 -0.100369 
-1.8177 -0.673279 -2.02373 -1.87868 -0.479871 0.938194 0.807413 0.526842 -2.87741 
-3.91583 -4.25272 -2.80634 -3.75816 -4.14209 -2.66932 -3.60133 -3.18989 -4.16912 
-4.13525 0.771363 3.21292 0.379601 2.47532 0.00685242 0.238418 0.28844 1.09411 
1.57002 11.5919 -2.03872 -1.17255 -0.663678 -1.01452 -0.285442 -0.893056 5.96276 
7.19446 4.16523 5.87543 7.01846 5.19038 8.00396 -1.94609 1.93514 -1.34339 
3.47932 0.0190889 1.74114 -0.0120367 -3.07438 -3.59127 -3.8443 -3.91968 -0.78253 
-0.926939 -2.47627 -1.11658 -1.01304 1.171 5.44482 5.08425 4.1351 -0.8312 
2.30347 6.31176 6.79481 7.47756 0.716344 0.322033 0.0575105 0.503753 0.946005 
0.701242 5.51346 0.345405 0.580167 0.665864 1.7211 0.554075 0.27164 0.414749 
0.517874 0.264142 3.22113 0.438848 0.476525 0.232664 0.365036 0.293968 0.276845 
0.333761 0.373245 -1.58258 -0.452771 -0.525527 -1.62454 -2.95716 -0.76373 -0.362303 
-0.407706 -0.66932 -1.59058 -0.487908 0.587671 0.822245 0.591023 1.59376 0.559833 
0.466241 0.440002 0.491725 2.86088 1.35894 3.28036 4.84838 1.88179 3.31735 
8.90709 6.59353 8.46614 6.24764 4.35988 5.15782 4.92799 1.24204 2.07302 
0.711652 7.52706 2.73505 0.611332 1.98353 1.26847 2.07788 4.38927 1.455 
-0.445431 0.974917 0.782429 -2.31163 1.04059 0.109769 2.72845 5.7505 3.6682 
2.08455 2.8829 2.80335 0.91644 1.09051 1.09971 2.70495 1.02671 2.44838 
0.926342 -0.560505 -1.88551 -0.724915 -2.02241 -1.07828 -2.32658 -0.710729 0.658106 
0.155082 0.169246 0.0213628 0.15607 2.02389 -2.45269 -0.667152 -1.6709 -4.01246 
-3.91736 -3.89715 -1.78115 -0.792062 -1.12761 -0.0352592 -2.15043 -0.496277 -4.09193 
-0.622946 -0.494776 -0.572391 -1.62137 -0.537628 -0.525097 -2.46309 -2.15335 3.63942 
10.6154 10.0937 10.4061 12.8003 12.0345 0.327775 0.450653 0.513753 0.745081 
0.734174 0.570582 -3.30135 -2.33751 -1.897 -2.15463 -1.36996 -0.434144 -1.9502 
-1.10212 1.9814 3.64343 0.228726 0.995147 6.23383 -0.253081 0.0309177 0.894271 
-0.223868 -0.582048 -0.0406102 -0.569352 -1.38981 -0.333865 -0.359917 -0.468626 -0.700296 
0.965526 0.25854 0.180583 -0.188549 -0.742095 -0.275542 0.123038 0.243558 0.780239 
0.323619 0.845527 0.0486132 0.859464 -0.489974 -0.610013 -0.38585 -0.563091 -0.554754 
-0.618819 -0.478463 -0.515424 -0.622179 -0.401395 -1.20521 1.77139 5.84751 3.33931 
3.24018 6.16306 6.48612 6.42058 6.99086 -4.20251 -3.57072 -3.59018 -3.71247 
-3.00033 -2.90568 -3.10344 -3.36505 -3.16729 -3.53289 -3.63968 -3.66435 -3.51292 
-1.91775 0.262822 -0.147675 -0.0307514 -0.754694 -1.4455 -0.617293 -1.4121 -1.0385 
-0.418089 -2.45915 -0.169722 -0.243064 -0.337288 -0.210476 -0.228644 -0.322869 0.0144598 
-0.00549113 -0.373907 -1.03807 -0.356877 -0.972788 -1.27961 -0.429968 -0.856208 -0.795476 
-2.85581 -1.87471 -3.01065 -2.95164 -3.17572 2.48091 4.03372 -0.547622 4.63775 
3.74509 7.20644 8.23635 4.45667 7.17403 6.00101 11.08 3.21204 4.60619 
5.56543 6.30873 2.18057 1.01477 2.65523 0.271289 0.9658 0.0489503 -0.179997 
1.09133 -0.604618 -0.841153 0.623682 0.258481 0.658416 0.740589 -1.05852 -0.58523 
-0.954095 -0.783458 -0.466122 -0.355877 -0.223166 -0.333411 -0.948327 -0.809301 1.20219 
0.466694 -3.95522 -0.504225 1.95623 2.53874 4.05608 1.22249 0.935762 1.34928 
0.0103869 -0.395368 0.408707 -0.543901 -0.369734 1.00461 1.18536 2.87571 0.40037 
0.0184351 1.6574 0.0706756 -1.54987 -2.61179 0.944735 -2.06316 -1.31789 1.14719 
0.35415 0.600048 1.71511 0.466938 0.414027 0.271807 0.625246 1.85238 -0.870334 
-0.67318 -0.481097 2.66709 1.20399 -0.0905028 3.18364 3.21397 3.47848 2.88094 
3.14544 2.46968 2.69405 2.79246 -0.158905 5.3954 6.33607 4.0563 -0.487003 
-0.597668 -2.14408 -0.558881 -0.873444 -1.0412 -0.442061 -0.491935 -0.692465 -1.73758 
-1.36213 -0.806113 -0.854212 -1.03613 -0.794438 -0.981731 -2.16321 -0.708706 -0.697879 
-0.608934 -0.33554 -0.497918 -1.00903 -3.20911 -3.00081 -1.22003 -2.92069 -3.65619 
-0.082351 -1.05668 -0.243823 -0.554803 0.487316 1.94336 2.216 0.639441 0.507631 
0.507339 -3.46989 -0.880801 -0.846871 -1.95672 -1.39291 -0.173977 0.190671 0.19426 
-3.81841 -4.15114 -4.33561 -4.07564 -4.19007 -4.10693 3.59277 -0.929752 -0.929337 
-1.05599 -4.04487 -1.23087 -1.04117 -0.562645 -0.712809 -0.516384 -1.45814 -0.754128 
-0.251526 -0.482488 -0.745163 -0.947448 2.13722 1.29954 0.250089 -1.36096 -0.371264 
1.22983 -0.322877 -0.223487 -0.265969 -0.0821534 -0.107995 1.12798 -0.281797 -0.549738 
-0.67164 -0.474386 -0.752541 -0.609985 -0.551575 -0.618687 -1.79905 -1.32188 -2.03586 
-2.31713 -1.46319 -3.35345 -2.44688 -2.1455 0.288059 0.769724 -0.185803 1.16186 
-0.200611 0.764097 0.772904 -0.0606475 -3.82651 -1.11111 -1.77779 0.525343 0.211996 
0.0285105 0.508475 0.364981 0.626434 0.720532 0.66331 0.735153 0.792375 1.4808 
-2.10741 -0.036857 -0.925285 -4.06395 -1.00271 -1.46571 -2.63612 -1.59995 0.118689 
0.0853559 0.3694 0.089252 0.13978 0.217984 0.267822 0.0644161 0.0686175 0.135123 
-2.83107 -2.96191 -3.20564 -0.692461 -0.939732 -2.20837 -1.83657 -2.18622 -1.42625 
-1.21226 -0.59932 -1.74878 -0.838587 -2.04141 -0.24811 -0.365596 -0.196926 -0.295757 
-0.28738 -0.350185 -0.247467 0.0484163 -2.44901 -0.435023 -1.37475 -0.489067 -0.362233 
-0.361518 -0.700771 -0.275789 -0.403429 -0.560673 -1.28741 -0.517675 -0.278116 -0.308759 
-1.00986 -0.739801 -0.737293 -0.65974 -0.875335 -0.978617 -0.354974 -0.616783 -0.407982 
-0.730706 -0.221408 0.397731 0.445012 0.582859 0.566022 0.598219 0.423899 0.456096 
0.124467 -0.751437 0.707374 -0.372361 -3.5783 -3.93991 -3.92893 -4.1312 -4.05907 
-4.19299 0.401904 0.602939 1.93209 0.758906 0.319557 0.784725 0.307628 0.562052 
0.0112658 0.448954 -1.94254 -3.5775 -3.52873 -3.19604 -0.508423 -0.685858 -0.343145 
-0.401662 -0.42864 -0.404422 -2.40206 -0.346537 -0.0207222 -0.0123235 -0.108639 -0.157481 
4.48741 5.94331 4.28814 1.08837 6.51672 -4.15663 -2.96894 -4.07391 -4.17816 
-4.00151 -4.08366 -3.91982 -4.22346 -3.873 -4.3418 0.116634 7.81697 -0.57619 
-0.172833 -0.542069 -0.284613 0.00875639 0.117537 1.26941 0.365557 -0.636563 0.0863381 
0.117736 0.947132 0.305379 2.04817 1.94234 1.83917 1.94208 2.22404 1.86245 
1.67175 -0.0323965 0.0124651 -0.0934674 -0.0128981 -0.0229419 -0.0429947 -0.244412 -0.22684 
0.0179548 -1.1794 -0.369852 -0.242534 -0.67684 -0.905985 0.128638 0.999795 -3.5627 
-3.85061 -3.65053 -3.78285 -0.29811 -0.353144 -0.358515 -0.241304 -0.264837 -2.42894 
-2.14974 -2.21041 -1.90762 -1.83255 -1.95709 -2.48186 4.10922 0.171873 0.33379 
0.0554654 0.368211 -2.71803 -0.909869 -0.794397 0.447392 9.2297 -1.10192 1.51989 
0.261324 4.82153 0.511175 6.64098 4.57475 4.20041 5.13163 4.34832 4.54997 
0.782867 3.16409 -0.675416 -0.590065 -1.13254 -0.954443 0.312843 0.634508 0.425632 
-0.318202 1.49493 1.22873 1.56064 -2.10952 -2.66131 -2.3527 -0.613127 -1.57507 
2.32754 2.05809 2.34856 2.33889 2.46712 2.3011 2.62159 6.51538 -2.20514 
1.64864 -0.0209292 -0.264153 4.67209 -1.80795 -0.323863 -0.184906 -0.325002 -0.38998 
-0.489598 -0.506577 -0.475618 -0.512403 -0.233484 -0.235602 0.867831 -0.0554633 0.126269 
-1.06604 -0.796276 -0.784122 -1.72 -0.680329 -1.45438 -1.05223 -1.36802 -1.34132 
-1.5874 -0.426427 -0.468387 -0.377565 -0.373203 0.077805 -0.476634 -0.551128 1.77898 
0.638602 -0.625501 0.673667 1.04911 1.3417 -3.74531 -2.60886 -2.64289 -1.57438 
-3.7759 -2.47446 5.22119 2.90744 1.99159 2.59735 0.686862 2.56688 2.77214 
2.79715 2.87381 5.33012 3.16885 4.50217 1.90852 2.35709 2.27756 8.02284 
7.43742 8.30381 8.81206 8.05975 7.26022 0.0158871 6.22306 -0.685202 6.55922 
4.77403 4.36691 -1.56706 -3.43025 -0.24997 0.0144707 -0.0277969 -0.571074 0.862569 
-0.13162 0.792132 0.159211 0.97054 1.11695 1.98964 1.513 1.98493 1.37213 
-3.37553 -3.36795 -3.72158 -3.64488 -3.68408 -1.99593 -3.69422 -2.60269 -3.2157 
-1.1304 -1.95508 -0.66598 3.23651 3.91535 4.16322 3.47842 1.67562 3.95902 
4.87441 -2.09072 -3.51305 -3.31572 -3.32453 -2.9495 -0.967386 -1.54992 -1.93059 
-0.434741 -0.268045 -0.419014 -0.259341 0.432271 -0.359211 0.0718539 1.14928 5.69005 
5.33925 7.2855 5.75219 7.18243 7.86762 7.40449 7.07286 -0.49162 0.0597323 
0.0289471 0.0783256 0.144538 -0.58985 -1.05737 -1.01808 -1.06556 -0.914318 5.2793 
6.4168 5.2534 4.81272 3.74294 3.59264 4.68464 4.53434 6.92088 5.18709 
5.25224 0.174537 5.57411 7.32868 8.07906 8.12233 8.11197 8.71199 6.63418 
1.18135 0.743076 -3.86704 -3.97076 -3.73196 -1.76689 -0.958697 -0.819053 -0.880283 
-0.137767 -0.148463 -3.75092 -3.80037 -3.88152 -1.24428 -0.910224 -1.70399 -2.69199 
-2.0264 1.99024 -0.940922 -1.04203 -0.953905 0.273827 2.3526 3.62176 1.43441 
0.85085 1.22706 1.46921 1.15366 2.6112 -0.321459 -0.31604 -0.440212 -0.288859 
-0.298313 -0.327384 0.11153 0.304072 0.420494 0.454232 -0.454075 1.11292 2.21599 
-0.0657711 2.12417 -0.73232 4.07318 -1.35677 1.55661 1.67963 4.24803 0.613764 
1.61105 1.04503 -0.0285659 -0.00646048 10.5643 10.7751 0.0367208 13.7105 -4.00621 
-4.05948 -3.91157 -4.09465 -3.99819 -0.142524 -0.12587 -0.0664817 0.117408 -0.238825 
-0.091856 -0.354348 -0.228132 -2.37217 -1.13587 -1.9762 -2.22792 -1.47599 2.55971 
4.12285 3.74519 0.114169 1.85484 2.64398 -0.584594 -0.645006 -0.618041 -0.694445 
-0.745724 -3.05029 -0.969049 2.23046 -0.115713 10.6478 -4.00811 -3.08668 -3.15208 
-3.32505 -2.75465 -3.00621 -2.68516 -0.0997559 -0.161211 -0.154981 -0.118551 -0.180084 
-4.42749 1.35822 -2.94287 -2.88459 -3.40712 -0.663041 -0.771271 -0.933569 -1.3176 
1.15521 -0.115953 0.538012 -1.01533 -0.121165 -0.744642 -0.490212 -1.07141 -0.535719 
-0.696152 -3.73619 -3.94425 -3.90146 -3.75867 -0.346566 -0.293956 -0.171155 -0.231499 
-1.81951 0.822293 -4.07486 -4.21882 -4.04621 -4.09356 -4.33039 -4.36743 -4.01875 
5.42808 6.16773 6.0654 3.4232 6.48234 6.28038 6.34349 2.12396 3.11668 
1.35993 3.25113 3.07731 2.92242 2.31599 2.65545 1.73134 -0.0243159 -0.112836 
-0.0710001 -0.0786091 -0.0922905 -0.143298 -0.632061 -2.13289 -0.715545 -0.607674 -1.69584 
-1.53048 -0.929738 -1.18409 -2.7674 2.1882 -1.76421 -0.921996 -2.05555 -2.53736 
-1.00033 -1.61978 -2.40968 -2.51251 -2.14576 -0.562966 -2.46854 1.78048 2.31871 
3.03364 3.26551 12.9446 1.31169 0.610471 0.74289 -3.88336 -4.05815 -4.08855 
-3.96611 -3.5406 -3.60161 0.379007 0.387979 0.254191 0.407512 0.282637 0.374783 
0.88635 4.16683 6.76609 -1.27369 -1.01053 -1.15781 2.10952 1.05844 1.78964 
2.39392 4.01864 2.9304 2.31481 2.03036 -0.829675 -0.336379 -0.317006 -0.167394 
-0.236271 -0.100564 -0.159863 -3.42537 -3.56784 -3.78576 -0.608326 -3.79927 4.6896 
5.47828 4.87434 5.21001 4.94295 5.17114 4.33139 4.22246 -1.76463 -1.91914 
-1.80006 -1.98255 -1.86347 4.32988 3.26593 2.80687 0.989648 2.09515 1.82305 
4.20333 6.73539 3.48526 0.319467 0.416088 -0.909769 -3.2286 -0.197954 -0.355954 
-0.535853 -1.47055 0.542276 -0.514736 -1.63802 -1.01613 0.462366 0.455757 0.404252 
0.397642 0.489261 0.598553 0.240599 0.549034 -1.6796 -3.74544 -3.25313 -0.726695 
-1.24763 -2.82322 -2.95153 -3.21202 -4.0309 -0.801183 -0.289529 -3.0451 -0.765966 
0.000787746 -1.73081 0.758449 4.57484 -0.101671 3.62334 4.9253 -4.00498 -3.61992 
-4.2955 -4.24173 -4.21394 -3.97248 -4.33862 -4.0308 0.0407999 8.07507 7.14558 
5.46688 8.0303 10.3373 9.05519 10.2439 6.20492 11.963 10.8047 -0.284446 
-0.17197 -0.408891 -0.314982 -0.378563 -0.583705 3.73604 1.13162 8.58321 1.69137 
1.26524 1.06133 -1.2767 -0.302807 -0.478567 -1.36164 -1.34471 -0.889003 -3.944 
-3.02572 -3.0934 -4.36217 -1.79041 -2.71975 -0.825703 -1.86841 -2.11947 -1.43397 
0.538856 6.33355 0.690981 0.288932 0.328057 1.27552 3.80613 1.89651 1.89026 
0.370528 0.449186 0.976586 1.19189 -0.423632 -0.513898 -0.533291 -1.765 -1.26861 
-1.56849 0.913176 0.465722 0.857023 0.31716 0.713426 0.571772 0.646798 0.901382 
0.500492 0.748501 0.257743 -3.12216 -0.558616 -1.02324 -3.34469 -0.731002 0.389094 
0.496515 0.252188 -0.218243 0.706197 0.182414 0.195915 -0.457589 1.79618 0.989603 
-0.748603 1.23219 0.983302 1.41393 1.17928 -2.52546 -0.828911 -2.74799 -2.20475 
-2.9786 -3.96305 -2.91744 -0.733425 -3.88359 0.00412519 -2.95864 -2.16749 -0.919967 
0.730554 0.15021 0.0349752 -0.241308 0.593202 0.72292 1.20531 0.846005 1.38251 
1.02556 1.3505 1.01362 1.86535 -0.0549991 -0.0518603 -0.0648995 -0.0860614 -0.138484 
-0.163539 -0.151417 -0.366345 -2.11313 2.44794 -0.320305 -1.87607 -0.912503 -1.82848 
-1.2571 0.875121 1.10253 1.09016 1.74178 -3.79401 -1.53682 -3.7128 -3.93333 
-2.96004 4.66951 4.24093 4.58742 3.37826 4.33502 6.84681 6.64599 1.899 
0.541833 0.354253 2.63363 1.78524 1.29433 1.97963 1.79057 1.70277 1.37953 
-0.954976 2.5458 -0.349053 0.943051 -0.937047 -0.580087 -0.375869 -0.655056 -0.71318 
-0.480644 -0.596331 -2.71867 -1.89318 -0.820821 -3.8617 -3.41919 -3.52712 -0.665043 
-0.324358 -2.04811 -0.533828 -2.68713 -0.76282 -2.96766 0.647312 0.462498 0.483327 
0.808175 1.04915 0.720202 0.800393 3.46424 3.31017 2.56715 3.1978 2.96749 
2.42195 3.80932 3.92691 4.08512 -2.78032 -2.50571 -1.89784 -1.15068 -1.78316 
-0.702396 -0.602946 -3.51731 -1.24164 0.0732272 -0.749704 -0.169732 -0.0745943 -0.448112 
-4.20573 -4.21521 -4.25418 -3.68565 -3.97156 -0.531347 -0.607201 -0.457605 -0.587681 
-2.84551 -1.40622 -3.46945 -1.59919 -1.46672 -1.19703 -1.88956 -0.725188 -0.616713 
0.108655 -0.172946 -0.111916 1.09645 -0.00817363 -2.25904 -2.18005 -2.06552 -0.0585438 
-1.0383 4.62269 4.30023 5.34104 5.87749 4.22747 1.72697 0.948015 1.10032 
-3.64149 2.42226 1.49446 -0.622546 -0.0758236 -0.162835 0.0423323 -0.00687976 -1.27786 
-1.19137 -1.19796 -2.52632 -1.89226 -1.29652 -1.26748 -1.12176 -2.71346 -3.97145 
-3.8055 -4.0289 -3.87534 -3.95107 -0.687901 -2.24699 -1.35325 -0.142317 0.0381615 
9.95517 -0.576683 -0.209292 -1.07516 -0.0374776 -0.546975 -0.0404209 1.26621 2.3263 
0.515827 -3.12792 -3.66619 -3.70311 -3.57057 -3.53365 1.8206 1.44395 1.72725 
1.04941 0.353551 0.467803 -3.12312 -4.02301 -3.8948 -3.57393 -3.11202 -0.0791391 
-0.0976667 -0.0644357 -0.0750895 -0.156061 -0.269886 -0.589159 -0.390779 -0.831499 -0.251942 
-1.03294 -2.6522 -4.02144 11.785 -1.70612 -2.64749 -3.93629 -0.22124 -0.205208 
-0.166431 -0.155286 -0.259239 -2.4193 4.02962 -1.1674 -0.745513 -0.507001 -0.726783 
11.5502 -0.683701 -3.86366 -3.73116 -4.05122 -3.84201 0.826879 0.870675 1.22217 
1.26246 -3.84493 2.09862 0.547982 3.84797 3.3549 0.849074 0.555857 0.77518 
0.997114 0.586217 0.501749 0.761473 1.51341 0.930796 0.0726413 0.298704 1.65512 
-0.373056 -0.33991 -0.79768 -0.366474 -3.87149 -3.89917 -3.89816 -4.1923 -3.88769 
-3.99349 -3.69303 -3.64354 -3.56194 -3.53732 -3.10495 -0.849887 -0.766061 -0.629052 
-0.600215 -0.617547 -1.60291 -0.486307 -0.768292 -0.711607 -0.553753 -1.32061 -1.11264 
-1.31005 -1.71979 -0.794573 -1.72357 -1.3106 -1.44099 -0.348174 -0.178525 -0.980063 
-1.0535 -2.67085 -0.786867 -0.981501 -1.98794 -1.96512 -0.866562 -0.591645 -1.75572 
-3.90236 -3.76192 -3.73962 -3.69825 0.895973 0.704446 2.06976 1.99538 0.848168 
1.06505 -3.72742 -3.96124 -3.76635 -3.91249 -3.6575 4.62437 4.85925 2.8633 
-4.06179 -4.04714 -3.46718 -3.77417 -3.89599 -3.8348 0.0402438 -3.35827 -3.79204 
1.7414 1.35423 0.296201 0.547711 12.7609 1.08521 3.63798 2.9287 3.7359 
1.06524 -2.94272 3.69985 -0.0165471 0.0176013 -0.590089 -0.247419 -0.241608 -2.85982 
-2.53692 -2.8942 0.909198 0.53116 0.471557 0.717788 1.43406 3.56344 0.853401 
0.893204 0.694336 2.07871 -0.255596 -1.97498 -1.17227 -1.87382 -0.557775 -3.35563 
-3.67705 -2.19636 -2.34264 -3.45582 -2.23243 -1.97418 -0.19325 -0.319011 -0.276869 
0.394092 0.00641962 -0.391666 0.710565 -1.20973 0.519884 -1.78972 1.19413 2.08003 
-1.05909 -2.87154 -0.643732 -1.25155 -0.824901 5.17671 -2.19175 -1.17342 -0.402766 
-3.30931 1.33944 2.77458 4.69911 -0.232874 -1.05895 1.07713 0.468434 0.525758 
0.553883 0.415815 0.418232 -1.71403 -2.89031 -1.06597 -2.5908 -2.80171 -0.764322 
-0.93303 -0.296838 -0.955417 5.07937 -1.17738 -0.648173 -1.04709 -3.98207 -3.65783 
-2.61826 -4.18167 -4.35732 -4.03272 -4.01361 -3.99552 -3.99826 -3.9472 -4.07703 
-4.02284 -4.16727 -3.89282 -0.965661 -2.81586 -3.57034 -3.91514 -3.60262 1.41484 
-3.37269 -0.0822795 -0.146126 -0.516903 0.21403 6.84436 6.89236 8.424 7.64515 
9.91247 10.9858 10.9577 6.11327 4.28246 4.00966 -2.04072 -2.19976 -2.29984 
-2.26298 -1.5965 0.375288 0.446717 0.439884 1.24606 2.04178 0.492235 0.283666 
0.128043 0.205437 -0.0879088 0.305988 0.305325 0.345558 0.365016 0.208296 -0.22996 
-0.293332 -0.272559 -0.304243 -0.315532 -0.138659 -0.177575 -3.69734 -3.32853 -3.22404 
-3.64034 -3.89097 -3.56098 -3.97717 -3.65338 -4.0318 -2.80739 -3.13531 -3.18308 
-2.93666 -2.98444 -0.314962 -0.254583 0.00795193 -0.381396 -0.309571 -0.373697 -3.54768 
-2.15777 -1.72754 -4.0141 -2.73269 -2.77263 -3.63171 0.302366 0.19329 0.278617 
0.186358 0.194958 0.110002 0.0795327 -0.181494 -0.155795 -0.343654 -0.380291 -0.41788 
-0.456945 -0.453528 2.8473 0.384683 0.0790884 -0.271196 -0.47856 -0.652727 0.205913 
9.42766 7.09493 7.08397 7.07275 7.84509 6.81915 10.0795 8.72217 7.8949 
7.42745 7.72738 1.96518 1.70917 1.61623 2.09375 2.3061 -0.519312 -0.484086 
-0.506254 -0.619157 -0.572105 -0.700999 -0.785867 -0.630716 -0.506543 1.69472 -1.31361 
-0.789837 -1.14766 -0.549719 -0.341078 -0.290827 -2.06031 -1.56677 -0.897797 -2.02264 
-1.86297 -1.30361 -0.401639 0.141401 0.0407263 -0.11037 -2.98846 -0.0388928 -2.16438 
-2.47637 -1.91601 -3.91158 -2.82849 -0.741318 4.63099 2.32205 -0.113012 2.0099 
4.08516 4.21943 4.71985 -1.11519 -1.12167 -0.958661 -0.963842 -0.811818 -0.831372 
-1.90365 -2.82041 7.49324 10.5538 -0.261663 7.57428 8.36704 5.23187 8.20698 
6.58277 -0.194188 -0.0771315 -0.105033 -0.121183 -0.123961 -0.258022 -0.199048 -0.274922 
0.897448 0.794308 1.56555 0.54391 2.5209 2.38318 2.33931 2.12368 2.60158 
-0.817726 -0.53009 -2.02136 -0.670441 -1.65928 -1.63119 -2.57263 -1.95375 -1.81862 
-1.70444 3.12468 5.54233 5.69758 -1.02154 -1.86635 0.57706 -0.997005 0.199022 
-3.61683 -0.708072 -1.37247 -3.67526 -1.03081 -3.02304 -2.13154 -1.57141 -2.25454 
-2.58378 -2.36639 -2.47373 -2.7102 -2.61887 -2.71912 5.05277 -1.12306 -2.95646 
5.50376 13.4519 11.1585 10.9263 10.9734 3.14898 2.40668 3.40037 1.46203 
7.18604 -0.074479 -1.80837 -3.727 -2.18434 -2.74553 -0.416156 -0.278535 0.467914 
-3.44186 -0.847972 -3.4051 -3.46402 -2.01103 -1.86111 -0.691948 -2.02002 -1.21972 
-2.1623 0.901219 1.02433 1.27207 1.5391 1.49969 1.6747 1.40767 1.97863 
1.38167 -0.499861 -0.50713 -1.14043 -0.803932 -1.44211 -0.367818 -0.427085 0.0896422 
-2.53928 -0.679431 -0.619751 -1.31567 0.686276 1.06583 0.809733 -0.375435 -0.450128 
-2.99283 -1.1548 2.5031 0.0823727 0.0749453 1.61544 1.81932 1.52554 1.32167 
7.51477 -2.41992 5.82058 -3.27584 -2.63518 -0.404531 -1.5059 -0.742611 -1.53099 
-0.897721 -0.838049 3.47472 5.60496 4.56772 0.305143 3.30881 3.47812 4.62597 
-0.0118181 6.16024 5.82026 7.14679 8.82219 9.41265 6.8835 9.63732 0.771049 
0.298302 0.0855633 0.667648 0.599967 0.975321 0.169578 0.45909 0.486627 0.325368 
0.292689 8.19038 8.74095 9.45384 8.67216 9.16822 8.68525 8.72399 7.8879 
7.9895 9.92959 -1.39564 -0.571752 -0.446273 -0.56111 -0.68659 -0.637584 -1.60466 
-0.834818 0.0400119 0.132209 -0.386835 -1.67199 -1.62881 -4.43171 -1.73612 -2.17152 
-0.407128 -0.823325 -0.826071 -0.311013 -0.374268 0.991347 1.30094 1.69416 0.46807 
1.45539 -2.31882 4.355 4.80599 -0.456487 -0.15455 -0.57647 -0.700467 -3.24513 
-3.00461 -3.42433 -2.60731 -0.750873 -0.975716 -1.54452 12.8436 -3.99409 12.0758 
-0.428974 -0.41318 -0.502752 -0.403853 -0.668138 -1.06533 -0.583878 -0.644614 12.6535 
11.7325 10.5101 11.2466 10.996 9.58833 7.60778 11.6957 11.7621 10.4991 
11.9907 -0.494993 -0.583766 -0.424251 0.300247 0.581267 -1.67691 1.16208 -0.595336 
-1.35385 -3.21065 -3.46842 -2.00062 -1.09295 -3.53072 -3.31667 0.184034 0.00336224 
0.0908163 0.131705 0.134704 0.252429 0.250066 -1.2466 -2.62133 -1.42303 -0.0849887 
-2.5162 -0.0779172 -0.00672404 -0.289611 -0.342221 -0.131956 2.05295 2.64634 1.26721 
0.4412 1.20557 2.0833 1.67269 0.898149 0.540757 0.54704 0.21785 0.731342 
2.36175 1.38426 -1.62406 -0.39356 -0.157449 1.18988 0.354655 4.15237 1.78468 
1.12473 5.05289 0.743114 -0.483109 -0.490722 -0.317933 -0.786431 0.797571 -0.317653 
0.0978599 0.424583 0.243 0.864642 0.80418 0.768036 -1.52641 -2.62946 -0.186605 
-1.77991 -2.01924 -4.2136 -3.79256 -2.84926 -3.09478 -3.98426 -3.85483 -3.65302 
-0.094114 0.112803 -0.0584291 0.0341569 -0.0765475 0.000170037 -0.0607231 -0.0367197 -0.230482 
-0.203669 -0.294645 0.22969 0.367656 0.0969155 1.10575 -2.7474 -1.94986 -2.36507 
-2.75835 -4.36428 -4.28788 -0.326382 -0.297829 -0.230963 -0.0565832 -0.214111 -0.279735 
-0.314573 0.0565088 0.0708305 0.341826 0.117282 0.37048 0.252515 -0.711522 -0.598619 
-0.665536 -0.982911 -0.745841 10.9953 -4.24791 -1.1091 -0.989578 -1.05779 -0.090064 
0.0367799 -0.155169 -0.172824 -0.292636 -0.0944305 -3.0044 -4.10984 -3.53487 -0.958418 
-3.9925 -1.72481 -4.31367 -4.01563 0.00610741 5.18002 0.0295395 0.464376 -0.107319 
-0.014326 1.82581 -0.225063 -3.42772 -0.481368 -1.75181 -0.993179 -0.361603 -0.538959 
9.75828 -0.341625 -0.26941 -0.28664 14.4621 7.49437 13.5663 -1.24413 -0.763891 
-0.877261 2.69968 -0.577586 -0.657031 3.68753 0.602283 3.52447 0.102262 -0.101649 
4.31278 4.95659 -2.03258 0.576909 -2.3427 -2.79938 -2.21365 -2.70595 -2.83923 
-0.478497 -0.342574 -0.471263 -0.552821 -0.448315 -0.429638 -0.330577 -1.3282 3.90765 
0.229053 0.196735 0.150617 0.306353 0.315602 0.15168 -4.15341 -1.60554 -0.569665 
-4.02543 -0.0129701 -1.47839 -0.768074 -2.45071 -0.456447 -1.6299 -0.918663 -0.613086 
-0.560957 7.76464 8.69361 8.28859 -3.94155 -3.8868 -4.04512 -3.91893 -3.90284 
-3.4301 -3.01901 -1.65464 -1.78062 -1.60741 -1.76738 2.69693 3.02079 2.99156 
2.91558 4.38964 3.86684 4.43384 2.1675 0.706658 1.62714 0.352317 0.190429 
0.559524 1.02962 1.73574 10.1312 11.9628 11.4866 10.5831 9.83147 14.5495 
-0.181647 -0.355687 -0.235391 -0.374271 1.39932 -1.11547 1.00067 1.65543 1.2678 
-0.181605 7.31265 -1.39 7.09357 1.57233 -0.760711 9.14511 -0.588956 -3.02369 
-0.762955 -0.281769 -0.331791 -1.74175 -1.25904 0.108687 -0.315831 -0.822466 -1.50668 
-1.38816 0.795758 0.929984 0.528974 1.04925 -1.71304 -1.67452 -2.20169 -2.21238 
-1.67504 -2.47552 -2.50028 -2.52174 -2.58094 -2.78302 -3.55248 -0.365246 -0.617884 
12.6275 -4.45713 -3.85083 -3.87186 -3.0422 -3.5627 0.0898509 -3.46807 -1.08078 
-3.61522 -0.673414 -3.46902 -3.60641 -3.78079 -4.02175 -0.00111498 -3.95469 -0.00846623 
-4.10481 -3.6132 -0.334625 -0.18092 -0.826081 -0.199572 0.0309309 -2.57333 -2.40094 
-0.658515 -0.582097 -4.1933 -4.28855 -4.35992 -4.26466 -4.06747 13.1142 -3.6448 
-0.663532 -4.02729 -2.98938 -2.38996 -2.0414 -3.75965 -4.21024 -3.74353 -3.1905 
-0.828496 0.0622828 -4.09552 -2.58745 -4.29444 -2.96004 0.581756 0.920174 0.472991 
1.79473 1.33307 1.44185 0.851427 1.82509 -0.16338 -0.235707 -0.278991 -0.257606 
-0.396468 -0.59922 -0.729183 -0.713794 9.0898 8.82474 10.1616 4.36692 5.75935 
7.03302 4.6146 6.75643 5.25467 2.73788 0.296935 -3.72789 -0.139843 -0.0391638 
0.00639596 0.0301397 -4.36782 -3.97851 -3.66275 -3.87742 -3.77281 -3.76846 -3.78967 
-2.92586 -0.981124 -3.12498 12.0223 12.6815 0.0446698 -0.628301 -0.615788 -0.324164 
-0.0485183 -0.480266 0.0927252 0.0835716 0.0562996 3.98673 0.408117 -0.0943811 0.0796867 
-1.07946 -0.483017 -0.672086 -0.339177 -1.87862 -1.18539 -1.63251 -1.65053 10.6449 
-1.27504 2.28042 2.65889 1.96874 1.13747 -0.460595 -0.52501 -0.497488 -0.467283 
-0.6076 -3.83891 -3.87313 -3.84113 -3.88158 -3.9181 2.8639 -0.660397 -0.680776 
-0.766922 -0.677908 -0.571382 12.1401 -2.27215 0.0549315 0.951331 -1.15112 0.0912483 
0.0151517 -0.822204 -1.45221 -0.127916 8.75801 9.85924 9.50395 4.62236 5.37648 
2.89544 2.68437 3.17303 2.80964 3.29829 1.69069 1.85116 1.07828 0.673301 
0.562227 0.340582 0.416902 0.461396 0.742383 0.575094 1.1444 -1.1781 -2.15086 
-0.272175 -2.54351 -3.97401 -3.32364 0.44513 0.408639 0.327222 0.301039 1.54175 
0.448427 0.623559 0.207085 0.239594 1.46296 2.58988 3.37752 2.83731 1.16479 
0.428839 10.1863 -0.0471025 1.01394 -0.36522 1.28741 -1.73582 -0.349114 0.439137 
0.299544 0.694018 0.516243 0.45408 0.57281 0.675898 -2.0538 -1.93392 -2.0625 
-2.18237 -0.00309717 -0.046512 2.11034 0.352471 -0.235209 1.00154 0.896265 1.32512 
0.668369 1.48867 -0.193785 -0.0700631 1.51048 0.396071 2.76859 -3.10257 3.27307 
2.88401 4.65061 1.11515 -0.479526 -0.56886 -0.640929 -0.452845 -1.52181 -1.48728 
-1.36 -1.78809 -2.28965 -0.904544 -0.811962 12.9298 13.2089 2.30568 0.798157 
1.08297 1.15017 3.84428 1.90326 3.0705 0.287549 -0.388746 0.71941 1.47336 
0.360143 1.14908 0.41077 -2.0372 -1.49465 -4.03938 -3.09223 -1.35004 -2.17659 
-0.955066 -2.90358 -0.323984 -0.265585 -0.266601 -0.278733 -3.80555 -3.85044 -3.87245 
-3.98792 -4.01359 -3.94919 -3.73771 0.398128 1.75639 1.88885 2.23226 2.0621 
1.91465 5.97075 5.40865 10.8462 11.8063 10.6102 9.7031 8.59971 8.0693 
6.11385 5.98953 5.49199 5.67407 5.46183 5.27975 5.43031 0.0318443 5.2054 
6.80069 5.24236 6.5357 4.5446 4.82831 4.34905 3.9612 6.81037 5.60332 
6.25647 0.174441 0.188816 0.966206 0.780673 0.248521 11.1417 -2.57403 -2.59677 
-2.95065 -3.11333 2.44758 1.08381 1.36144 0.403287 0.550766 -0.837059 0.0982688 
4.28583 5.24235 4.59128 3.8203 -0.65545 0.340039 -0.711761 -0.698297 -0.00671172 
-0.427664 2.38378 0.625278 0.397435 0.397526 1.80683 0.689726 1.7354 -0.111937 
-0.0801595 -0.0723219 -0.0792609 -0.0228974 -0.0716519 -3.70501 -3.88672 -3.19942 -3.44429 
-2.20162 -1.16921 -3.3516 -3.19733 -3.89015 -3.40535 -0.943482 -4.04321 -3.96545 
-3.78848 -3.81217 -3.70289 -3.46574 -2.75481 -2.77913 -2.55771 -2.68605 -3.05396 
12.9611 -3.16889 1.96019 0.276234 0.00353624 -1.04033 -0.190189 -0.348787 0.550597 
-0.895126 -0.98311 2.57303 1.57734 2.30802 2.22328 2.50994 2.59468 0.0190279 
0.0324526 0.066119 13.2385 0.0872184 -3.78644 4.76916 0.835759 6.06101 5.6131 
5.90444 6.14733 6.21988 8.23014 6.11052 0.0281925 0.348598 0.193725 -0.058394 
0.540819 -2.8058 -2.79386 0.0501455 -3.25737 0.94294 -0.460872 1.42243 -1.12659 
-2.09205 0.0648332 -4.34234 0.152141 11.7178 11.2262 10.77 11.1515 -0.749999 
12.4687 -0.343168 -0.442514 -0.692988 -0.769455 -1.20313 -0.945772 -0.0645201 3.08246 
2.19728 2.66902 0.701554 2.35534 1.25716 1.50565 11.4449 10.9075 11.2107 
5.30322 2.72965 2.65731 2.89604 3.12403 3.04779 0.217493 1.50603 0.139576 
0.0557774 0.167377 1.14499 -2.56726 -3.44451 9.45612 -0.854053 8.77808 -2.66646 
0.435665 -3.02185 0.891815 -0.896798 -0.6245 -3.10934 -3.23973 -0.732463 -1.57187 
-0.880976 2.18016 1.92065 2.19183 2.59129 2.45133 2.02742 1.86115 4.12144 
2.97017 4.24343 4.34797 0.114118 -4.02123 0.30884 0.218391 -3.93544 -4.01599 
4.25621 3.79516 6.69495 5.99649 2.9441 3.21638 -0.97474 -1.59548 -1.31259 
-1.45794 -3.19867 -0.833237 -0.226821 -2.57081 -2.58678 1.41548 1.143 1.35711 
1.33472 1.4951 1.28828 2.1071 1.16961 4.44695 3.86396 -4.05341 0.706878 
-0.322821 -0.433156 -0.329537 -0.898692 -0.602749 -0.423525 -0.389547 -0.793612 -1.60528 
-0.52259 4.83947 -3.94633 4.32974 -0.738138 -0.202522 3.31283 0.809414 9.15163 
6.95301 8.5925 7.44954 -0.562163 0.277937 0.379531 14.2481 0.0444767 0.0076694 
0.090274 0.113456 0.0371903 0.0799776 4.12245 1.50474 4.1403 3.06866 4.25683 
4.54755 1.34528 2.37626 1.55429 0.437811 0.279818 0.458102 1.32439 0.0482878 
1.10834 0.170105 0.0342435 2.40215 2.07257 2.73927 -0.678346 -0.738662 -0.823806 
4.75913 0.232789 -1.95928 -1.07116 -1.24553 -2.99329 -2.72567 10.3793 -3.26187 
-3.0251 -3.1438 -2.79654 -3.05203 -4.25541 14.0357 -4.01144 0.125563 -3.69175 
-3.88441 -1.42718 -3.99135 -0.290318 -0.608197 -0.115586 -0.661315 -1.88494 -0.484168 
2.14866 0.0851254 -0.596283 -2.3761 1.88405 1.60567 0.133592 1.24501 -1.82876 
-1.36096 -1.34341 -1.71623 13.9401 14.0275 13.2578 9.39408 8.19121 9.3281 
10.4294 11.2077 12.178 11.5011 0.938781 1.04908 0.448288 0.558588 -0.475783 
6.79297 5.94123 5.82045 6.29261 5.93381 3.22437 2.125 3.04593 2.48083 
2.42462 2.88355 1.22599 0.265362 0.262504 0.439212 0.608449 0.499596 0.716366 
13.4773 -2.2258 -2.09932 -2.19114 12.4308 -2.41299 -2.46017 -3.40454 -3.65446 
-3.03918 -3.2891 -3.09965 -2.82685 3.5311 4.26147 3.67729 3.43575 3.85198 
3.59502 -0.528246 0.527562 0.773793 0.888741 0.444229 0.45793 3.42863 0.696302 
-0.720783 -0.545697 -0.55898 -0.479863 -0.493147 0.359797 0.0271666 0.250455 0.0628976 
0.0411386 2.83466 -1.08804 -0.265619 0.752932 0.952967 0.813505 0.939433 0.843744 
0.717816 -2.84939 -3.94449 -4.05798 -4.10486 -4.25258 -4.16325 -2.43728 -1.01618 
-1.42735 1.01959 -1.8812 -1.35732 -1.66134 0.363614 1.1383 1.41171 0.637052 
0.566202 -0.0163405 0.0201894 0.0286719 12.6264 13.2029 12.0907 -0.393021 11.3556 
11.5751 -0.984777 -1.10525 -1.06793 -0.937359 -0.554307 -0.509696 -0.997783 -0.815981 
-0.641099 -0.659999 -1.42646 1.29761 -3.78576 -3.10383 -3.17767 -3.18275 -3.10317 
4.2496 0.0946378 2.84409 3.0744 -1.0563 -0.256567 0.0108624 -0.340384 -3.86086 
-3.86915 1.95635 1.63566 1.07131 1.07004 0.0150705 2.88512 1.16163 -0.425457 
-0.839411 -0.151464 -0.180708 -0.216836 -2.56037 -3.41943 -3.87699 -1.11756 -3.80867 
-2.04099 -3.88818 -3.56868 -3.89588 -3.67755 9.56885 -3.85565 -0.508487 0.052991 
-0.452107 -0.903886 -0.944892 4.05255 -0.364934 0.676411 4.89619 6.05285 6.75131 
-0.178868 1.55468 1.38586 1.76828 1.6454 1.63505 1.69188 1.8124 1.67567 
6.07347 7.93193 6.31613 5.68721 5.07388 7.58369 8.3296 2.76679 2.64664 
2.41662 2.51393 -2.35936 -1.17735 -2.49404 -0.58763 -1.02828 6.08524 1.21725 
1.22609 1.44611 -1.41413 0.1096 -1.43184 2.57887 -0.885995 -0.713614 -2.09935 
-0.830415 1.24533 -1.15923 11.956 -1.73019 3.58559 -3.30884 -0.433488 -1.58565 
1.85757 13.3047 -2.35157 -0.966673 -0.932673 -2.46618 -2.70875 -0.683281 -3.54552 
-0.457252 -3.49689 -1.50522 -3.17995 -0.0593585 10.8158 -3.89734 -3.53666 -3.69535 
-0.414325 -0.559813 -0.626685 -0.464104 -0.530976 -1.23454 6.17702 0.00970312 -0.0943716 
-0.0389346 0.0790282 0.0782682 0.129003 0.105024 0.104264 -0.993028 0.0246126 -0.714039 
-1.35514 0.0492007 10.0096 0.338682 0.629035 1.12918 11.7885 9.93836 2.77475 
-2.76323 -0.910846 -1.347 -2.39944 -1.54507 -2.6927 -2.04698 -2.66001 -2.20228 
-0.446102 1.25892 1.3461 0.739642 0.70074 0.835894 0.536608 0.750344 0.912567 
-0.108125 0.445491 5.66553 11.3767 9.96305 10.395 8.96012 10.0953 0.470151 
0.652372 0.572556 0.754524 0.926935 0.982289 1.20822 0.146677 0.265631 0.280939 
1.26606 1.6764 8.48031 3.00723 2.89422 3.23348 3.43565 3.99052 2.9457 
3.39306 2.87472 3.31555 -1.82571 -0.343188 -0.349904 -0.407973 -0.47412 -2.98044 
-2.81803 -2.93899 -3.29889 -1.63119 -3.87928 -3.11587 -4.01295 -1.8301 -2.74714 
-2.47819 -2.12121 3.65722 -0.77694 5.30465 6.41533 4.70784 6.51908 5.11105 
4.44773 3.80824 3.08675 -1.2617 4.68004 6.77655 0.360321 -0.381763 -0.0398983 
-0.000251316 -0.891098 -0.515336 0.579978 0.913981 1.49114 1.89825 0.0577822 1.28719 
1.50458 1.61761 2.14781 1.32333 0.915421 2.14148 2.00845 2.2336 2.15284 
-0.831262 -3.48481 -3.48685 -3.51367 -3.18594 -0.781719 -3.44773 -3.49501 1.02728 
1.17369 0.401523 1.47228 1.11247 1.31524 1.10896 -0.01065 4.81391 4.57958 
4.94379 6.98156 4.82406 7.25237 4.393 4.414 -2.12626 -2.61134 -0.782106 
-2.79059 -3.6325 -3.04799 0.948021 1.39962 2.50533 1.71403 2.90706 0.594625 
1.22345 1.62821 1.37389 1.41407 0.881718 2.45159 1.80166 1.65017 0.0187326 
-3.66897 -3.7081 -3.80305 -3.77819 0.710003 1.01381 1.34895 1.06268 2.8478 
-2.52397 -1.43425 0.761812 -2.90297 -1.48038 -3.00849 -0.438704 0.922201 5.07385 
5.69199 5.24988 6.85591 3.40847 4.38415 2.78323 1.10332 -0.164393 0.00688483 
-0.304899 -3.88954 -3.82372 -3.69224 -0.898433 -0.582594 11.8176 -2.551 10.8714 
-0.909038 -0.519407 -1.13793 -2.35803 0.070043 0.109516 -0.0706091 -0.0613148 0.0584373 
0.113854 0.136888 -0.282251 -0.325505 -0.23893 -0.914382 -1.39298 -1.56082 -0.983156 
-1.83227 -1.01577 -0.756616 -1.59883 -0.247107 0.0565683 -0.826533 -0.642103 -1.05027 
12.7774 -1.07115 12.3188 -1.05852 -1.11199 -1.02014 -1.59422 -1.2176 -4.30913 
-4.02683 -4.01942 -4.1827 -4.16248 -4.14698 -4.11082 4.11334 0.611707 2.91499 
11.8375 6.65742 0.570173 -0.759547 1.74063 -0.573573 2.79445 -0.251702 -0.886119 
-0.469152 -2.29694 -1.62875 0.52496 -2.36718 0.530881 0.399489 2.05959 -0.0237981 
0.110886 0.0553566 -0.947646 -1.88791 -1.89948 -2.19193 2.52026 7.57917 0.785419 
1.26842 -1.46057 7.56747 3.2166 0.716321 -1.6081 7.83011 2.34015 -2.49344 
7.80725 6.5553 -0.0787824 -0.139521 0.0522495 0.00840107 -0.122631 -0.408681 -0.642659 
-0.825573 -0.450643 -0.288892 -0.431819 -2.83719 -1.53064 -0.460851 -3.01476 -2.59488 
-2.66681 -3.56657 -3.91184 -3.70927 -3.90069 -3.72979 1.05613 1.10405 1.5112 
0.978944 0.931032 1.24634 3.5035 0.92988 -1.07671 -1.19155 1.23921 -0.0761299 
-0.0773605 -3.08642 -2.17906 -1.29801 -3.04421 8.09687 -3.42898 -2.85709 -3.45876 
-2.49469 -0.297238 -0.195085 -0.171372 -0.287915 -0.111401 -3.67026 1.10785 -3.16951 
-0.978612 -0.935065 -0.912723 6.88719 5.66846 6.13138 6.10119 -2.82413 -3.95511 
-0.493615 -0.363237 -0.369904 9.55884 2.49367 -1.22387 -2.16885 -0.572604 -0.788204 
-0.416162 -0.91293 -0.51585 -0.490279 12.6648 0.00537843 -0.00782484 0.800102 1.81142 
-0.0477843 2.21942 0.986274 -0.605051 -0.0898096 -2.00446 -0.0880858 -0.638741 0.626866 
-0.114562 0.440783 0.062208 10.3357 5.20141 -0.242837 2.15004 -1.5176 0.219808 
0.254332 -0.0688821 0.00961638 0.00513241 -0.00562624 0.0175857 0.0395056 0.0627175 -0.0772998 
-0.0363598 -0.0356076 0.341507 -0.65778 -0.543069 -0.765666 -0.721552 -1.58921 -1.62932 
-1.59852 -1.63863 -0.372921 -0.221049 -0.738223 -0.985271 -0.286764 -0.246863 -0.211566 
-0.270172 -0.47512 -1.77304 -1.04898 1.27717 -0.796966 -1.26779 -0.414552 -2.43006 
8.71686 7.50542 -3.91073 6.72965 7.05203 11.264 11.8441 10.4769 11.0305 
10.5365 -3.98048 -3.81462 -3.69999 -4.13002 -4.12457 0.171915 0.466266 0.43072 
0.215605 0.217132 7.67502 0.206739 0.0302423 0.0473631 -0.17074 -0.302401 -0.234691 
-0.321774 -0.264449 -0.157009 -0.315596 10.7491 12.3771 0.808538 -0.655673 -0.656024 
-0.718032 2.14819 1.53925 2.3178 1.61527 0.478441 7.60524 7.45865 7.61702 
8.88783 8.42615 8.43941 -0.131101 -0.102089 1.7367 1.60392 1.66841 1.43903 
0.893445 1.02951 1.42431 1.59469 -1.76395 -1.50458 -1.71248 -1.92488 -1.23464 
-1.08613 0.158162 -0.163556 -1.19697 -0.574045 1.0941 0.852023 -0.39853 -0.542667 
-0.588209 -0.622155 -0.513783 -0.645798 8.27934 8.44711 10.6536 10.6228 10.1569 
11.4169 9.8484 10.9711 10.857 0.0115328 -0.746072 -0.592253 1.29392 0.15495 
-1.20897 -2.29147 -2.55783 -1.95922 -2.14338 -3.0165 10.5976 -0.292769 -0.329642 
-1.44739 -1.40249 -0.571316 2.56418 2.45987 2.63013 2.2655 1.95494 4.11839 
1.58199 0.65485 1.45019 6.99678 0.646042 2.72753 0.766979 -0.0430807 0.143739 
0.119181 0.093846 0.140749 -1.02619 6.95572 8.43736 7.76925 7.30966 8.68219 
-1.10707 -1.90787 -2.20697 -0.9437 -1.04443 -3.28725 8.10652 0.681802 8.04091 
1.2409 1.83207 0.97402 2.20941 0.691894 -0.433616 -3.83122 0.748722 2.48583 
1.66413 -0.312406 -3.3427 5.96641 1.00499 -0.0985513 0.0400945 -0.120591 -0.266899 
-0.0360022 -1.21475 -3.14289 -0.95189 -2.77948 -1.0706 -1.15631 -3.5091 -3.63245 
-2.68122 -2.98574 -1.12825 8.19428 9.98337 10.3538 9.25082 10.8825 10.5292 
11.2573 10.5707 12.2267 10.6592 0.0623743 0.121375 -0.0199087 -0.0634394 2.90595 
2.9324 4.05434 3.30665 2.88233 1.5946 1.74608 1.62082 -0.0124629 0.182411 
1.52867 3.02266 1.24823 2.49456 -0.0375056 0.0147402 0.434399 0.171988 0.356775 
0.0631676 6.94927 -3.37449 -3.04432 -1.6071 -1.23549 -0.495863 3.18588 -0.834224 
7.50289 7.20202 -0.308643 -3.40649 -3.61276 -3.54333 7.04053 4.4943 3.37224 
4.74346 3.63489 2.90441 0.784561 -4.02668 -3.79819 -3.84693 -3.94161 -3.80842 
-3.78179 0.0202993 -1.74695 13.5125 -0.807636 0.0515323 -0.429281 13.7117 12.2898 
12.05 0.285608 0.234432 0.743516 1.11799 1.30281 -0.0539169 -0.634222 -0.53548 
-0.634972 0.452495 0.554912 0.515237 0.362773 0.0585133 2.86164 -0.281837 -0.4758 
-0.487282 -0.162975 2.87634 3.8033 3.9049 0.0341364 0.179277 12.947 11.8609 
-2.74653 -0.793957 -0.418019 1.55682 1.08444 0.743468 0.48435 0.412678 0.637161 
-2.37932 13.5051 -0.160088 -3.47779 0.0330464 -0.720612 11.0013 10.8293 10.7256 
10.6206 10.5169 13.3984 11.9331 11.3442 -2.94819 -3.02128 -3.01588 -3.08897 
1.48957 1.69498 0.359094 0.630202 0.540347 1.3801 1.76349 0.31998 0.262253 
0.0749477 0.324743 -0.128228 -0.297682 5.56553 4.64104 1.35548 4.22296 0.493679 
-2.6029 -1.92895 -2.24255 -2.41638 -3.47396 -2.19347 0.401875 1.74151 0.559967 
1.27573 0.448893 1.11121 12.3221 12.6182 10.862 12.2649 3.48428 -1.2657 
5.86786 3.54279 3.2635 3.67748 6.4695 7.04434 -0.170532 4.06273 6.7042 
3.95221 0.442618 0.50647 0.362012 -2.06818 -2.035 -2.44614 -2.53616 -2.85869 
-2.73522 12.6599 -2.7632 -2.74573 12.474 -0.245753 -2.62332 -2.55982 -0.178746 
-0.242021 -0.275539 -0.35643 -0.375254 -0.408772 13.804 13.1195 12.7519 13.7167 
0.196851 0.314739 -3.36746 -0.792898 -1.65435 0.228838 -2.22554 -3.13497 -0.11424 
-3.94219 -3.85121 -3.21314 -3.32003 0.0829391 0.0596237 6.7198 7.00014 7.56377 
-0.732529 5.42384 -0.558935 -0.520041 1.03306 13.5016 -4.05181 -1.70236 10.2111 
9.40363 8.16482 10.8885 11.4803 -2.52542 -2.48946 -2.6165 -2.65246 -2.90754 
-3.05859 -3.20233 -3.25331 -3.35814 -2.43683 -3.29672 0.801265 1.35756 1.36941 
1.18621 2.16135 2.13916 0.351185 -3.28066 -2.19389 -3.75938 -3.77068 0.17979 
0.0883376 -0.112276 2.65606 11.61 -0.861915 8.24938 0.903284 10.788 -0.145201 
0.0431185 -0.198109 -0.218773 -0.196934 0.28722 11.2876 11.9027 0.244026 0.17629 
1.74478 0.623784 0.656529 1.94254 -0.631136 -0.605323 -0.60391 -0.418365 -4.15725 
-1.94327 -0.839054 -0.03481 0.023836 -0.131922 -0.525695 0.445609 0.265965 9.80239 
1.8892 1.79036 1.50825 11.3084 -0.167358 -0.833298 -0.0240262 -0.610032 0.0774493 
0.0507963 13.4134 -1.38098 -0.704509 -1.07481 4.81634 3.9247 4.31846 3.29182 
3.20019 -0.0657308 2.40207 0.782189 -0.8211 4.98371 4.63055 5.78167 5.42058 
4.4023 8.34717 7.48316 7.07857 6.23554 7.0529 4.97852 3.97304 0.0578417 
0.0758844 0.118171 -0.293465 -0.0834798 -0.0344883 -0.0480461 1.12295 0.943398 0.964961 
-0.0111785 0.0485628 0.624108 0.401481 8.28658 0.443961 0.241028 9.71107 5.51904 
3.78311 -0.633629 2.90559 6.1827 6.47486 2.60952 8.392 2.53537 1.31215 
-2.83077 -3.14681 -2.18991 -2.32686 -0.00806051 -2.435 11.6668 3.50865 6.35569 
-0.783998 4.20232 2.92241 5.60874 -0.330598 -1.03969 -0.837859 -0.839927 3.87336 
12.7993 -2.76475 -2.57053 -4.34331 -4.0334 -4.15128 11.056 11.6243 9.87244 
-2.74421 -0.0263338 -1.28032 -3.83329 -3.5688 0.0570735 -0.138471 -0.117876 0.126526 
0.154256 0.102648 0.120584 -0.0786063 -0.201198 -0.089544 -0.15598 -0.101883 -0.168319 
-0.800107 -0.954411 -0.738753 0.68926 -0.509185 1.23477 -0.0843486 -0.833149 -0.227123 
0.771931 -0.677298 -3.36158 0.0389141 -0.522314 -0.542582 3.02291 -2.55438 -0.812461 
-1.82061 -0.145338 -0.147671 -0.174303 -0.215327 -0.272297 -0.203799 -0.214185 1.76299 
0.885021 0.495521 0.632208 0.770661 0.950749 10.8046 11.8248 11.5686 11.399 
11.6784 14.1013 10.1582 8.04355 12.721 12.6683 11.0351 11.9393 10.8181 
10.9066 12.3937 11.6317 11.2863 -3.77487 -3.96121 -3.5182 -0.835715 -0.79761 
11.9478 -3.5626 -4.02763 2.9594 -2.08756 -2.37905 0.144127 -2.27828 -0.963169 
0.129955 -0.871738 -0.580066 -0.209726 -1.80435 -1.09517 -0.859014 -0.804489 -0.153973 
-0.236018 -2.39632 -0.20214 -0.196026 14.1705 4.35797 4.74582 1.88827 1.19806 
0.939479 0.134154 -0.877456 -2.78023 0.113805 -2.5893 3.19691 2.76791 3.09748 
2.84851 2.31532 -1.13729 -1.06571 -1.25724 5.44665 -1.59174 -1.57335 -1.1669 
-1.08803 -1.41698 -2.48011 -0.612383 -0.641644 4.12001 4.47039 4.13242 4.31026 
-0.00645711 6.0023 -1.35486 -1.89822 -2.47419 -2.31931 -2.5733 -2.41842 -2.89811 
10.921 11.7582 9.85801 7.74768 9.10162 9.54579 -3.1084 0.152342 -2.0001 
-0.031455 -2.33201 -1.45165 2.71484 2.83044 1.48736 1.20916 2.83553 2.78614 
2.64218 2.9131 0.457963 0.127153 1.77395 2.60068 -3.58184 -3.64911 -2.17829 
-3.42541 -3.1886 -1.56103 0.0394058 0.12086 -3.49174 -3.54785 -0.235295 -0.0853882 
0.17326 -0.797435 -0.418517 -0.409256 -0.485754 -0.407638 -0.451631 -0.472232 -0.513292 
11.8576 1.61334 -0.0346231 0.939069 7.83038 8.09579 8.20068 9.12801 8.29173 
9.21907 3.14506 3.16172 1.5171 3.33225 8.3868 8.28762 -3.59196 -3.6671 
-3.60033 -3.92562 -3.65678 -0.172892 -0.213271 0.223963 -3.0943 -3.1181 -0.865661 
-0.905047 -0.988013 -0.948751 -0.759762 -4.0877 -0.630012 -1.77419 -1.98081 -1.76572 
-1.83464 -1.95744 1.13455 0.742454 0.953811 -0.118753 -0.420316 -0.349906 -0.390462 
-0.555832 0.0434106 -3.44985 -1.21343 2.2619 -2.16277 -2.29274 -1.41816 -1.71539 
-1.62424 -1.79745 -2.93632 -3.2931 -3.1081 0.765071 -0.467139 1.08961 3.93886 
1.4384 -1.03958 -0.613266 -0.666257 -0.760194 -0.707203 -0.476106 -0.414083 -3.98433 
-0.980714 7.4208 4.07744 1.46663 -0.00226397 0.121299 0.885652 0.242518 7.37717 
7.1865 6.6718 -1.17292 -0.568369 -1.06463 -0.930187 -0.0876407 0.828366 2.2116 
0.676089 0.310319 12.366 1.49185 1.22727 0.661083 -3.61503 0.0635402 0.0337808 
0.0322174 2.22247 2.29559 1.88072 1.65895 2.07382 9.28626 8.42442 10.6993 
10.2318 11.2091 9.65954 4.95518 6.23891 13.1213 -3.07388 -0.81739 8.14405 
0.420285 13.3348 1.61933 3.26361 2.37777 2.54271 2.50628 3.26796 -0.110956 
0.707672 0.165611 -0.0558806 0.101764 -2.39683 -3.05264 -3.13387 -2.8361 -2.91733 
0.457521 6.7777 0.792823 -0.183186 5.47777 0.0438914 -1.28093 -1.89084 -1.84827 
-0.345661 -0.431969 -0.421266 -0.09957 7.30083 7.42351 7.36745 5.53029 8.32301 
4.8543 5.61396 6.31329 -1.55449 -0.906627 -0.215841 -0.514388 1.43199 -0.936646 
-0.928166 -2.52899 0.0790449 -2.17551 2.4199 0.772924 2.6567 -1.3566 -0.911131 
-0.981037 -1.06882 -0.981734 -0.940065 -1.06751 -1.54641 8.86749 -1.13546 10.3217 
-1.01686 -0.878659 -1.01114 10.8671 1.89696 0.70182 -3.16508 -0.494217 -1.59708 
-0.894209 -0.652087 -2.32578 0.0775037 -0.461859 -3.86599 -0.22029 0.31408 1.66131 
-3.92947 -1.20407 9.28205 1.09211 0.804083 0.748575 8.85404 9.48525 -3.23798 
-3.62143 -3.40672 -0.098499 -0.593436 -1.04951 -2.44455 -1.74154 -1.15087 -0.539609 
-1.67512 -0.134273 -0.852074 -2.38303 -3.01284 -1.67282 0.626736 -3.15525 -1.52458 
-0.458808 -0.518495 -0.516734 -0.457046 -0.367458 -4.08818 -3.92905 -3.31746 -3.90395 
9.845 -3.82293 4.42297 -0.349815 13.6237 -0.310921 -4.07042 1.35863 -2.96635 
-1.0587 -0.988721 -1.08786 0.0840436 -3.86053 -0.11836 -3.99913 -3.37834 -3.15561 
0.00621722 -0.0190833 -0.055265 0.114775 0.175898 -0.43981 2.88735 2.36007 3.30058 
-1.24703 -2.28582 0.850746 -2.7878 -3.69187 -3.74354 -4.06556 -3.87813 0.0102115 
-3.45142 -0.30204 -3.52512 -3.32188 -0.0483695 -1.47338 -2.36677 -1.20212 13.0738 
-1.21275 -1.08662 -1.18389 -0.372223 -0.283536 -2.6912 -2.6238 -2.58209 -3.04321 
-2.74252 -3.14716 -3.68654 -3.42206 -2.07908 -2.19684 0.211328 -2.5477 6.73966 
-0.123104 -0.10802 -0.452541 14.19 1.63493 0.0963183 -3.67482 -3.5642 -3.58699 
-3.60879 -2.75088 -3.68848 -2.20156 -1.15168 -0.923049 2.10537 4.90559 -2.43204 
-2.29787 0.263695 2.18729 1.59066 1.56358 2.03143 -0.0460347 -1.83003 -0.46226 
-2.78479 -3.209 -2.4376 10.6219 3.176 2.83183 -2.29118 -2.34329 -0.604419 
-2.36426 0.268044 -1.4852 -1.17523 0.421131 -1.34046 -1.95425 2.53679 0.116417 
-0.123889 11.7715 10.0605 0.0430028 -0.0741848 -0.199674 0.0619666 1.50748 -1.84647 
-1.20259 0.102905 13.3137 -0.640993 0.114078 -2.37116 0.175369 0.0662964 -1.56703 
-2.49238 -3.18008 -3.43579 -0.86808 2.59174 -2.06027 0.329494 -0.885898 -0.810558 
-0.929222 -0.854989 2.32615 -3.21598 -1.7186 -2.49146 1.10219 0.0795437 -0.94883 
-0.755718 -0.528257 -1.82336 -0.930972 -0.988975 -1.07657 -0.91763 -1.56076 -0.769803 
-2.90769 -0.876159 -1.7601 -0.92741 0.910278 0.370789 -1.54682 1.05868 2.39815 
-2.22875 1.06101 4.55332 2.83986 -1.41291 -0.110868 -0.1009 0.869108 4.54595 
5.03563 -1.83036 0.977046 5.32105 -0.0522969 2.881 0.470981 -0.379963 3.26825 
1.33862 1.42539 2.03455 0.0633859 -0.418667 0.201016 -0.0564149 -0.65822 -2.26986 
2.0031 -0.082913 -1.41894 -0.0688653 -3.87041 -3.72582 0.162638 1.8018 -2.8195 
-3.85034 10.3145 0.244786 11.173 0.407083 10.0143 9.31704 10.3586 11.4163 
11.7226 0.722529 -0.504985 9.98623 -0.715437 1.40325 -1.54712 -0.360033 3.7558 
-3.73827 -3.47003 -0.397644 -1.63162 1.48154 1.95942 0.711703 1.12302 1.24204 
2.27271 2.58231 -0.163315 2.54399 2.65768 1.05337 2.07998 -0.0774239 8.0159 
-2.25597 -3.23211 -3.79777 -0.0572804 -0.107305 -0.000925257 0.0719975 -1.34282 3.0788 
1.50048 12.5452 -0.814647 -1.3056 -1.35154 -1.05918 -0.765452 -0.936066 6.44052 
-0.910553 -1.6807 -1.55943 -0.604858 5.82149 -0.0125744 -1.67061 -1.61196 -1.64219 
-1.45269 -1.18896 -0.919374 -1.55611 -0.0503456 0.426317 -0.0106986 0.597284 -0.687675 
2.5178 -0.479866 1.80615 -0.356747 -1.38558 -1.6824 -2.86727 -2.21167 -0.974021 
-2.93671 -2.83101 -0.950951 0.755808 -2.28619 10.8979 0.322468 8.06711 8.06294 
6.55711 6.17085 1.4299 1.67699 -3.4635 0.202726 -0.0971801 -0.64024 -2.0412 
-0.159208 2.40298 0.311336 0.365143 -0.90854 -3.41305 -3.40726 0.150386 -1.96595 
-1.26657 -1.06015 -2.90817 -0.613011 -0.812088 -0.425861 -0.817474 -1.12143 -0.819542 
-1.32535 -3.56999 4.55989 6.71141 6.97903 5.91127 7.79146 6.8687 9.94533 
-0.07627 -0.0935365 6.77829 7.07064 2.61821 1.68689 2.07882 1.38459 0.0834248 
2.71248 1.20847 1.64281 2.516 2.39345 0.877989 0.845444 0.246872 0.65142 
-0.943208 -1.38059 -0.915773 -1.04248 -1.16839 -1.01081 -1.0728 -1.22474 10.251 
0.0126037 3.03014 -0.0825538 2.24362 1.98525 7.39424 4.17896 7.36264 6.62503 
4.3936 3.2434 6.68987 5.14327 4.69971 4.56658 4.75882 0.0119384 0.0103627 
-1.7154 -1.68448 -1.7534 14.4385 8.46185 13.3882 -1.48613 -1.61649 -2.13995 
12.8878 0.019421 -1.72719 -1.43132 -2.34546 10.5915 -0.371127 -2.53689 -2.88745 
10.6479 8.54908 7.85569 -3.53725 5.80954 6.25918 7.44105 7.29742 6.16099 
-0.883336 -0.130656 -0.150888 -1.61005 0.0982653 -0.37736 -0.444897 -0.373515 -0.47499 
-0.962212 -0.517106 5.26064 -1.70549 -3.06286 -2.39713 -1.92204 -1.57315 14.127 
5.59568 -2.85079 -1.04713 -1.11914 -0.922048 -0.948633 -0.0542271 -1.18435 -0.140289 
0.2637 -1.9608 0.449056 -1.49365 0.0990607 -0.919555 0.0960451 -0.324143 0.301548 
-2.20404 -0.153974 -1.38647 0.471793 -0.127862 -1.14696 2.3301 -0.365484 2.26903 
2.38721 1.44099 0.187234 0.16698 -1.68693 -1.62105 -0.561586 -0.460617 -1.13736 
-2.59898 0.466297 -2.13725 -2.75886 -1.22223 2.78692 -1.50421 -0.332977 11.1047 
-0.267128 -0.325286 -0.30675 -0.31156 -1.32482 0.0960832 0.345385 -0.749695 -0.595258 
-2.89496 -3.78949 -2.61188 -1.00431 -1.78552 -2.01491 -0.567078 -0.419622 -0.54239 
12.4986 -3.40348 -1.96896 -3.08566 -3.01681 13.7149 -2.00095 -2.07015 2.79643 
-3.89685 -3.52171 -3.41581 -1.01978 -1.85246 -1.67256 -1.17465 -2.56487 -1.04697 
-1.95198 -0.818774 6.18484 8.96121 -2.16767 -1.22984 -0.892538 0.986587 0.312651 
2.19089 0.571223 1.68232 1.38812 3.20856 0.283393 1.64335 2.78708 1.87661 
3.67718 -0.249081 -3.56776 -4.0866 -4.04613 -4.11141 -0.471753 -0.420614 -2.14549 
-2.11523 -2.40491 -1.93075 -1.91655 -2.51872 0.0257949 12.8879 11.7528 7.71229 
13.6172 0.0340793 -0.661368 -0.776748 -0.430498 -3.94999 -4.07715 -2.97133 -3.92 
-3.91383 -2.18821 0.822847 12.9792 12.6092 -1.61822 1.38193 -0.326411 -0.617908 
2.60002 0.318757 12.4768 -3.87105 -2.9494 -3.42488 -1.33255 0.0448606 0.571726 
-0.0543666 -0.00396623 0.313313 10.6204 0.0814678 -0.447675 0.0481882 -0.221467 -0.975132 
-1.03618 -1.02317 -1.15112 10.8848 -0.559885 -0.501773 -0.583276 1.2747 3.64568 
2.49483 4.30232 1.73014 -1.22208 0.111281 -1.52469 0.130143 0.130125 0.112444 
0.112426 -1.37018 0.0953475 -1.30418 -1.61186 -1.45308 -1.47345 -1.08306 -0.68131 
-0.957187 -0.237529 0.101946 2.60296 0.872949 1.30124 -0.272615 1.50352 1.55068 
1.34114 0.20834 -3.63937 -1.57846 0.127587 -1.43564 0.0397851 -1.69126 -1.90616 
-2.08766 -1.35232 -2.20017 -1.70364 -2.35508 -3.47637 -2.86873 -2.06688 -3.53716 
0.487748 -1.56274 -1.69555 -0.850796 0.142714 -3.88887 -1.35073 -0.910351 0.359932 
0.3214 0.463094 0.424562 1.90859 1.47763 0.401976 0.363444 -3.1257 -2.31659 
-2.1227 0.185592 -0.825511 -2.85158 -1.85829 -0.171469 0.25981 -0.246146 0.391198 
1.26684 1.1788 1.54282 0.104808 6.50936 3.45375 1.35284 1.45008 1.29352 
1.80446 -2.06207 -1.31844 -3.43428 -0.806042 -2.00814 -1.97608 -2.37069 -0.622393 
10.3156 -2.61175 2.69193 1.99509 2.51137 1.95892 2.56936 2.6187 3.01751 
2.40081 0.554709 4.86005 2.39371 3.22479 5.4312 -2.65426 -0.719367 -2.70466 
-2.15066 -2.57872 11.603 -1.10605 -1.3074 -1.91074 -0.925161 -3.52269 -1.19665 
-3.46573 -0.42225 -3.05536 -3.40174 0.899755 8.23369 0.762108 7.47112 -1.55771 
-1.93629 -1.79629 0.41504 2.27562 9.74912 9.64242 0.539433 0.305047 0.550255 
0.384029 0.796268 0.616555 0.536765 -2.56497 -2.80717 -3.89855 -3.71955 -3.76245 
-1.15845 -2.07793 -2.75065 10.7135 -3.52577 -2.07856 -3.38637 -0.882451 -3.9589 
-0.705699 -3.59623 -3.81962 -2.62433 -3.39488 0.941961 -0.65761 -0.56712 -0.62791 
0.279013 -0.427589 -0.197497 -1.31738 -0.337911 10.7918 11.5345 -3.74225 -3.67235 
-0.267482 -0.666815 -0.689148 -0.533288 -0.530973 2.38521 0.132513 0.113271 -0.817254 
-0.533666 -0.661833 10.9945 2.617 12.2888 -1.31977 -0.0720663 -1.74418 0.112074 
-3.62058 4.47282 13.5943 -2.00114 -3.6811 -3.39114 0.185278 -3.58201 -3.34593 
-2.23639 14.2142 13.1638 -2.12011 -2.45389 -1.42991 -0.0586238 12.7086 -2.24541 
0.0967978 11.973 2.26009 14.0345 4.33758 8.1837 7.0821 0.0610175 2.27768 
2.9665 5.15557 2.25592 0.942319 3.60164 3.17203 1.1442 -2.0353 -3.5621 
-2.50817 -3.55385 -3.1574 -1.00453 -0.930361 -0.976851 -1.62455 -1.07611 -1.17714 
-1.03178 -1.34096 -0.970886 -1.07014 -1.06507 -0.651094 -0.676377 -0.703192 6.56411 
-0.79744 0.806704 -1.40664 -3.50915 0.0509251 0.0696918 -3.59664 0.333569 0.805479 
13.1929 0.960636 0.196776 0.158006 -0.0602128 1.49706 1.49305 -0.966631 7.20369 
2.25982 1.70119 2.59723 7.51522 2.13192 -1.05822 0.0707327 -2.1545 -1.84354 
-2.76562 -2.91262 -2.34277 -0.68537 -0.900509 -2.37448 -0.633774 -1.45212 1.6804 
0.0995491 -0.0667764 1.02559 0.0124818 0.0273054 0.0389995 -3.6948 -3.49121 -3.30754 
-3.98991 -0.807842 -0.823952 -3.05089 -3.12959 -2.66159 -0.613813 -3.79736 -2.3473 
-2.70121 -3.23857 -0.406902 -0.757926 -2.08729 0.024174 0.0995784 0.025489 0.051214 
5.21283 -0.802757 -0.824144 4.35986 4.31205 -3.97311 -3.41659 -3.33331 -2.86912 
-0.57484 -3.52367 -3.44129 -1.42024 5.49904 -3.80025 0.60731 0.204567 13.5524 
-0.0714276 0.0849299 -3.46279 -2.87513 -3.88041 -3.74494 -1.35393 -0.860948 -0.32686 
-0.544201 5.34257 6.04666 -1.88698 -0.729044 -0.157092 0.228351 12.8883 11.5797 
-1.08787 12.4067 0.532911 -0.0408355 0.0310319 0.438626 -0.530525 -1.23969 -1.46272 
-3.85344 -0.384116 -0.384304 -0.72985 -0.779932 7.19146 6.36128 -1.83294 5.68485 
-2.0178 -0.936827 -1.33012 -3.76034 8.34726 4.65428 9.48144 -2.8804 1.65339 
1.90776 1.5968 1.52698 1.31882 1.05284 0.969464 1.7201 1.66883 1.46832 
1.51959 4.04059 3.84796 4.96219 6.40234 -3.38714 -3.81502 -3.5355 -3.69579 
-1.19245 -3.036 -2.82036 4.32006 4.93932 3.1226 5.97385 4.69062 5.40727 
0.928649 0.171663 -0.453929 -0.875179 -1.26459 -1.367 3.28948 -2.33639 -0.725981 
-0.854983 -1.44077 3.95664 1.9 -1.79111 -1.19826 -0.0996296 -0.129028 -0.0109432 
-0.210132 4.60856 4.16785 5.30902 6.40182 -0.751135 11.8085 -1.93729 -2.3247 
0.0779598 -1.01823 11.1763 0.043682 -3.76532 -0.275736 0.134253 0.0938747 -3.56675 
-1.31721 3.42628 1.69838 1.35503 0.267186 1.41023 13.7586 0.0020596 13.0539 
-3.33043 0.486521 -0.214886 6.16439 -1.10285 -2.72321 -2.05915 -2.12556 -2.17067 
-2.52261 6.87993 -1.54166 -1.85575 14.3732 -4.14601 3.40983 1.81414 1.68138 
2.35503 -0.865508 -0.0721213 -0.0882756 -0.0654658 -0.0528419 -2.82944 -1.24469 0.205579 
-0.992463 0.0981392 0.951368 -1.82257 -2.81043 -2.86957 -3.58531 0.222389 0.109572 
0.233821 4.43583 4.50926 -2.76917 -3.30438 -3.03234 -0.913578 -1.17289 -0.560295 
-0.688461 2.9724 2.97835 13.0144 10.0474 10.6749 11.2411 11.1814 9.32515 
8.93178 14.2448 12.6651 0.352516 1.42658 1.03378 0.534055 -1.44984 -1.03162 
-3.86224 0.552956 0.244934 -3.90706 -3.81475 1.23347 -0.921141 1.21727 -1.55354 
-0.186059 -0.287457 -0.180599 -0.20451 -3.73192 -0.912118 -0.210654 -0.302922 13.0599 
11.9378 13.1485 12.551 2.74859 13.8753 -1.48076 -3.12166 1.8133 -3.06679 
-2.96996 -3.06966 -3.13607 -2.98528 -2.64894 0.140507 13.193 0.0215931 12.5927 
0.517895 1.06957 0.781272 -2.93167 -2.82533 1.52478 3.51327 12.5046 -1.76152 
-1.1196 -1.02481 -1.4796 -0.150264 -1.77782 -0.189707 13.5004 -2.86964 -3.0298 
-3.52272 -2.13921 -0.853326 -3.29207 -3.78559 -2.59759 -2.54643 -4.01763 -1.14152 
0.932271 -3.89266 -0.274283 -1.31844 -2.64422 -1.65692 -3.72447 -3.00448 -3.33454 
-3.14221 -2.92159 -2.66896 3.00966 -3.2412 -2.63725 1.97898 1.712 2.42894 
2.26814 2.2319 1.69243 2.86532 1.08714 0.0426695 -3.16967 -2.69903 -2.95506 
-2.48441 2.45628 12.8893 13.6775 0.0748519 -0.123344 -0.108755 6.11486 6.18814 
4.92969 5.48033 13.6496 5.1435 -1.0443 -1.47686 -3.98502 4.9238 -2.70864 
-2.35285 -2.55589 10.2576 0.139356 6.76109 0.043475 0.0421129 0.0684979 0.0671357 
-0.68986 0.652231 12.5975 2.7347 2.78231 -2.13225 -0.903124 0.200296 1.36024 
-1.46918 -0.793588 -0.831402 0.636575 -1.09412 6.00035 2.12781 6.01676 -0.449606 
-3.9728 -0.00637449 -1.2718 -0.00404669 0.0719288 -0.051677 -0.0410325 13.6669 14.3185 
13.5417 13.7809 13.9213 0.0462041 -0.0461326 -3.79318 -3.56801 -3.16572 -3.40668 
-3.60947 -3.97442 -3.55568 -3.82358 -3.87743 -0.0162245 10.8024 -3.29067 -2.71846 
-2.15621 -2.49196 -2.47165 -3.03265 -1.6345 -1.57814 -1.70248 10.9444 1.58483 
-0.464713 0.264419 1.1233 1.94187 0.670173 1.75706 0.373757 1.29482 0.835998 
3.28784 2.31304 2.43637 0.04517 2.17569 2.11823 10.6926 10.7559 10.7232 
11.1991 11.2521 -0.383459 -2.78245 -1.02189 -0.463589 -0.291134 -0.982466 -1.49796 
-2.42395 11.0449 10.5269 -2.41741 0.023301 11.1156 -0.801243 -0.717288 0.0725112 
-0.799878 -0.354994 2.79694 2.6553 0.200549 11.8952 -2.24649 -1.399 -1.5388 
-0.652104 -3.7811 10.3759 -2.93246 -3.33352 -2.38992 -1.65089 0.494784 -0.0743419 
0.196513 0.225715 -0.55779 -0.387883 0.783738 -0.42198 0.995884 1.18242 0.461765 
1.39781 0.127736 2.15032 9.64946 8.7532 -0.0907674 9.24504 9.12877 10.1148 
9.61726 9.25298 8.07492 9.80083 1.43718 -0.274105 1.71788 1.77408 14.1853 
13.135 12.0067 12.5243 11.7023 0.66298 -3.6265 -1.73873 -1.13963 -1.32899 
5.25287 4.65879 -0.0662168 -0.107163 5.37082 6.2915 -3.38461 -4.12665 -3.92752 
0.291473 -0.414648 0.729006 -0.0122196 -0.338303 -0.054749 0.0641257 12.7938 2.42514 
2.78135 11.8821 0.898641 11.9962 0.0361973 3.42818 3.3111 12.0613 4.62624 
5.05952 4.28812 0.948646 -3.07468 0.358073 -3.26266 -3.28505 -0.0112497 5.15161 
-0.0500635 5.63455 5.14174 13.0885 -3.71765 -3.80508 -3.98917 -3.38517 -3.69742 
-3.79212 -4.10127 -4.03194 -0.409701 2.10482 2.08315 1.27486 -0.405356 -1.30866 
0.399322 -0.0142703 -3.79957 -0.0439107 -3.16419 -3.13957 0.92995 -3.46645 -1.91069 
0.0421053 -3.38971 -3.5537 10.9448 -1.96417 0.177059 -1.1695 8.36201 7.36349 
-4.07761 -0.383339 -3.5769 -3.1318 -0.712963 -3.76983 -3.95149 -3.923 -3.1708 
-0.0940231 -0.181103 -0.357472 0.0226591 -0.154803 -0.176333 0.286722 -0.59381 -0.748586 
-3.403 -0.582694 -2.4866 -2.24478 -2.21525 -2.6937 -2.739 -2.50237 -0.021554 
1.48114 1.87591 0.787324 -0.555621 0.107239 -0.484668 1.15512 1.80913 1.19917 
0.0449154 12.1066 -0.877703 -1.16922 -1.11423 -0.959509 -0.27291 -1.0569 -1.4788 
-0.0564698 -1.95979 5.22809 5.14051 5.60996 5.36423 5.32443 6.10211 7.24899 
6.84174 6.41739 -3.54466 -3.82623 1.58578 -3.72593 -3.93466 -3.64044 -0.376824 
1.84601 -0.615857 -1.13517 -0.333633 0.203011 -1.35087 -0.116001 -3.84139 -0.579955 
-0.564986 0.224005 12.9703 1.25569 -0.34784 0.811726 -0.640845 -1.06528 -3.95962 
0.0764057 -1.4789 -2.59738 -0.916513 -2.32166 -2.74669 -3.58159 -1.82129 4.69764 
2.53164 -0.587907 -0.54819 -0.686491 0.981317 1.48282 1.05081 -0.285354 -0.24372 
-0.292354 -3.34116 -3.44669 -2.5606 -3.18728 -0.0909284 0.457366 10.3772 -0.993013 
1.02331 -0.482489 -1.2001 12.7153 0.0332278 7.66365 5.64246 5.36211 6.13321 
6.51847 6.70854 4.84278 4.08478 -3.40692 12.226 0.41454 0.237505 0.522643 
0.368859 -0.0207935 0.193616 -0.0155574 12.9781 13.8942 0.655278 0.00996531 13.4226 
-3.66683 1.7225 -3.71295 -3.7809 -3.6358 12.3839 1.8122 11.6847 12.2163 
12.6015 -0.0437719 0.0629198 12.2243 -4.0702 -4.1458 -4.07758 -4.15318 0.332915 
0.283225 3.09059 12.1752 -1.32526 -1.24731 13.5824 -2.12133 -2.72526 12.8118 
-3.08725 1.92777 0.0302043 1.88861 1.91959 0.0367652 1.79493 10.9929 10.3769 
10.9378 0.872391 0.885351 3.54387 11.7693 4.9487 3.57285 13.4949 3.42846 
1.0328 1.8951 1.66463 0.0143359 2.88837 0.665659 0.332769 0.0452866 2.08121 
2.4749 3.70049 2.8513 0.961289 0.976488 -0.483138 2.58753 0.594711 0.0475934 
1.18987 1.47849 2.14119 3.23326 3.6433 4.98488 -0.123492 2.37935 1.79372 
6.63204 5.97058 7.96899 7.59947 0.796881 12.5783 12.2881 13.4432 1.33453 
1.20468 -0.305464 13.0296 1.21911 2.17744 1.83147 2.07316 -0.0210874 0.131542 
0.349861 0.186306 1.32474 -1.35229 0.0931918 1.68614 1.29683 -2.07469 -2.06918 
-1.98139 -1.96855 -1.88076 -3.86121 -3.73582 -3.69523 -3.62696 -3.83279 5.00595 
-3.69688 0.0560268 0.201442 0.190239 -0.310732 -0.374997 -0.471732 -0.455127 4.60439 
2.35114 2.3978 3.57316 0.974478 2.19051 4.5769 -0.0339405 -3.59173 0.0512097 
-0.023296 -3.71658 8.64394 9.04322 -0.0611901 10.165 2.61459 -3.52348 -3.50448 
5.83454 1.52914 4.98818 4.83225 -0.0643728 1.61088 3.8334 -3.27107 10.8127 
9.50421 10.1391 9.78614 9.98691 -3.77575 5.13723 -2.6262 -2.25086 -2.39797 
-2.33356 1.69129 -2.54312 0.287588 0.446942 2.82766 0.264538 3.51623 3.21448 
-2.93933 -2.16593 2.35716 -3.83677 -3.97156 -0.220866 -3.54765 -3.38642 -3.69961 
-3.72026 -3.67963 -0.908766 -0.652406 -0.781408 -0.0784414 2.5444 7.04826 7.67898 
7.02507 6.71526 6.79652 4.84064 6.12514 5.51202 -0.019082 0.0133951 0.0159641 
-0.095327 0.0108015 0.0608092 -0.135207 -0.768917 -0.10273 -0.962693 -1.12112 0.0495499 
-0.315194 -1.14833 0.229637 -0.021953 -0.850337 -0.904015 -1.03794 -0.91696 -1.36493 
-1.67645 -1.44147 10.6033 -1.54806 2.70862 -0.70874 0.241762 -3.94292 -4.02461 
-1.20443 -0.82766 -1.56247 -3.92439 2.48496 2.2913 2.80249 3.24564 2.91505 
2.12077 4.3132 8.34971 8.45399 -3.99985 1.54373 -3.93953 -1.21785 9.86292 
-2.08142 -2.36443 -1.74918 -2.09576 -2.01306 -1.83244 3.24612 -1.40163 -3.37597 
-2.50582 -0.0159991 -1.44189 -2.06312 -2.41686 -3.51232 3.32705 -0.802548 -2.85054 
2.78871 2.77474 0.0113955 2.12841 12.6767 10.2633 0.217487 0.22146 0.0568641 
0.950561 -2.57237 0.29095 0.279747 0.0218398 -1.40987 -0.381986 -0.464278 -1.83918 
-0.912393 -1.90061 -1.37941 -1.64622 4.21169 3.48098 0.0494002 -0.0621773 4.66328 
-2.01889 -1.84507 -1.39264 -2.87602 -2.9322 -0.656076 1.77303 0.107283 0.846112 
0.147517 9.90675 8.90975 9.69243 1.32352 10.453 -2.12883 12.8295 -1.75361 
-1.36175 -1.86077 4.09039 3.68007 3.71792 4.72143 0.0593961 0.0754251 5.85272 
0.724994 0.75797 -0.443587 -1.11815 -1.32467 -0.147292 -0.679501 -0.301507 -3.65863 
-0.302165 -0.166492 -0.247791 -3.9174 -3.44419 -3.08929 -3.53064 9.64938 9.83901 
8.92023 6.23726 6.48147 11.5031 0.0834685 0.143614 12.1182 -0.0589621 -3.6936 
-3.58376 -3.57924 -3.45683 -3.35068 11.2025 11.024 8.76866 8.5263 9.06294 
8.75939 2.11792 1.83846 -1.74805 -0.0663016 -1.48418 1.95585 1.56372 -0.131077 
-1.10736 0.0492551 8.34032 8.51455 8.39303 -0.0856071 8.40811 -2.17031 -2.28358 
-2.16059 -0.0167843 -1.90485 -1.85224 -1.20809 -0.798824 -1.85329 -1.41039 -1.08093 
-0.0998438 -0.368043 -0.673454 -0.00675501 1.07424 -1.80254 0.0923379 2.46284 -3.16926 
-2.40423 -2.72021 1.24427 11.3484 -0.0767979 -4.12898 -0.00481452 -0.387756 -3.61137 
-0.216085 5.78418 5.17132 5.01549 0.0721511 4.83726 4.62111 10.8875 10.6002 
0.0822092 -0.130372 1.34273 -0.447244 -0.734206 -0.11243 -3.73919 1.76898 -3.78646 
-3.92105 1.90571 -3.796 -3.66008 -3.64191 -3.77782 0.120806 0.13879 1.75159 
0.104132 0.887094 0.877869 3.08692 1.94969 -3.90894 -3.81585 0.656352 7.90493 
-3.05028 -1.2816 -1.67642 -0.290117 -3.43453 13.0645 -3.88008 8.59686 5.72452 
6.34918 5.49502 5.65466 5.85084 8.65681 8.18559 -1.37919 -1.35869 -0.548 
-0.903715 -0.919963 -0.810185 -0.487004 -0.515998 -3.78612 6.64111 -1.04665 2.75437 
-1.42447 -0.322965 -1.15993 0.151964 -0.160316 0.113784 0.0802279 -3.8002 -3.63365 
-3.05718 -3.78295 -3.5831 0.0741992 -1.47606 -3.05689 -0.655128 -1.44233 -0.529563 
-1.80462 0.0580713 -3.12135 -0.00535462 -1.89414 -0.813958 -0.758635 -0.687383 -3.96682 
-4.0609 -3.99407 -0.14801 0.0445322 0.0413695 0.0701798 0.0119896 0.0511456 0.0582524 
0.086501 -0.973772 13.014 -0.351184 0.0382863 9.15703 -3.45398 9.31423 -1.06242 
0.839212 1.10555 1.21606 -0.121446 1.30255 -0.169537 0.0638802 12.1463 12.8343 
12.2197 1.62241 5.47698 2.70568 3.87558 3.65462 1.11442 0.416563 8.89592 
9.17785 -3.42853 -3.40314 -3.59145 1.33619 0.0977242 0.125668 -0.0435692 -0.020429 
-0.803808 -0.00382462 -0.800618 -0.922989 11.3628 -3.58186 -3.83498 -3.79857 0.116562 
-0.128211 0.221201 -0.0684289 0.131822 0.346908 0.331647 -0.0105616 -0.049565 0.0138592 
0.110374 0.0716218 14.1262 5.1303 5.77709 4.79985 -0.257801 -1.13717 -1.77189 
-0.892519 -2.90287 0.102636 -0.122213 13.259 11.9188 0.0410495 0.0849367 4.44349 
3.08864 3.32792 4.36474 -4.14669 4.51185 11.3273 10.7588 9.59223 -1.61571 
-1.67075 -1.23283 0.0245583 -1.95055 10.0844 -2.41142 -2.17782 0.537763 0.375995 
1.39312 -1.684 0.609097 -0.0486301 -0.00600029 13.5677 1.44157 3.26654 2.15978 
1.14457 -2.00791 -1.73168 0.0183271 -0.0211158 -0.808525 0.912703 0.855783 2.54671 
2.52421 2.93051 13.4759 2.38834 0.0959958 0.322844 0.428707 2.18985 2.66765 
-0.0417107 1.30981 2.09657 -4.02629 -3.96903 -4.00727 13.1108 12.7257 0.0730378 
-1.13995 -1.07305 -0.977209 -1.46974 -1.55292 -0.608378 -3.84743 -0.160121 3.11964 
-0.233986 3.43408 3.44675 3.88088 0.277437 6.09227 6.81488 6.01479 8.82368 
8.92719 8.08943 8.19295 -0.629358 -0.681744 -0.762261 -0.0234695 14.4468 14.8588 
13.6681 -2.30928 -3.59863 14.0801 0.716046 -2.77171 0.0997095 0.0550313 3.00264 
-2.0119 0.0716693 1.17966 0.0379991 0.308148 1.35619 7.35669 -0.837406 -0.952228 
0.128617 1.26427 -3.66777 12.911 12.8688 3.14606 2.31155 -2.55894 -1.627 
-1.32722 -4.08815 -0.72153 -0.0622096 12.3861 0.152847 -1.52438 -3.95001 -2.13744 
-3.21107 -2.29303 0.0714198 0.15606 -2.3486 -1.694 -0.104271 0.0830317 9.40611 
-4.01658 0.101076 6.74317 -3.81863 -1.54191 -3.99477 -2.42395 0.999824 8.07613 
-2.57113 8.12612 -0.407311 1.66615 -4.05338 -1.38372 3.52286 0.112119 2.76491 
-1.53485 -1.75517 -3.25434 1.32891 1.44137 -2.39598 -1.80248 -1.65606 0.989405 
0.079873 0.430873 0.00697406 -1.37391 7.19502 -1.05119 -0.068666 -2.1921 -1.99667 
-0.677717 -1.27247 -0.926734 0.107305 0.0264366 2.41724 -0.298378 2.29044 -3.42762 
-3.35772 -0.134046 -3.68493 -2.51789 -3.09883 -1.85807 9.27764 -1.86605 -1.94811 
9.86944 -1.296 -1.67754 -1.34884 -1.20066 -2.69936 -0.891931 -1.74681 -4.01498 
-1.55454 -0.117464 -2.0643 9.92332 6.82871 6.14948 -2.26299 6.03563 1.00651 
1.19421 2.61655 0.712133 0.725093 -0.460313 -0.53443 -0.706179 -1.58098 -0.727387 
-0.603193 -0.325069 -0.48044 2.09827 2.15748 2.77464 -2.23398 0.160485 0.163698 
0.110592 -0.123781 0.874129 1.30422 7.60048 -0.107199 2.28848 0.140586 0.558774 
0.450699 0.370367 0.194281 0.274613 -0.058073 -1.26316 -3.23943 -2.95453 -0.227566 
8.90142 9.18055 8.24733 8.24453 10.2607 10.0211 -2.75181 -2.89014 -2.46149 
-2.71806 0.383301 2.49177 3.72749 3.53553 0.56021 -3.90088 -3.2069 8.75164 
-2.20179 9.34344 -1.86026 1.87182 2.00889 2.65918 0.999911 0.0889722 0.138958 
1.59822 3.98857 3.81034 3.58224 2.97391 3.52589 3.96478 0.0359805 0.0160203 
0.0610762 0.923195 4.33658 3.56173 -2.22558 -1.94838 -1.35374 -1.36305 0.00250582 
0.00114368 -0.0697186 -0.0872663 0.0298218 0.024685 -0.13877 0.262661 -2.15387 -4.01326 
0.112881 4.91373 -1.60042 3.37621 3.45761 3.81835 3.89974 -2.41143 -1.91668 
6.60119 6.43952 -2.08555 -2.19308 -2.11623 7.04886 -2.92608 -2.58613 -0.70455 
-3.956 -0.0816399 -0.0252643 -2.01184 -2.20073 -2.71995 -2.75786 -2.98983 7.86956 
-3.33345 -3.15604 -2.38518 -2.39562 7.91954 -2.88934 -2.81289 -1.95165 -0.0908044 
13.4556 -3.99011 5.15794 12.5353 -0.82799 -0.0728624 -4.14671 4.8943 -1.87953 
-1.63653 -2.64363 -0.767014 -2.58653 -1.01732 -0.132221 -0.149769 -0.114819 -0.0131555 
-2.31436 1.18109 1.29355 -0.0094833 0.0722093 12.2659 0.100171 -1.61685 13.9007 
-1.50095 1.07815 1.40156 0.0341507 -0.741467 -0.996087 -1.28999 -3.66658 12.637 
-3.53912 -3.38113 -2.44829 -1.39292 -1.54422 -2.46206 -2.20673 -3.97266 -2.15841 
-3.08523 0.942904 -3.06134 -2.67181 -2.34859 -2.14547 0.1156 -0.0675334 0.972761 
0.633454 0.956873 -0.0422867 -0.049638 -3.63739 -0.952755 -3.79828 -1.03803 -3.74057 
0.39188 -3.24099 -2.18915 -2.05985 -2.16515 -2.10284 -1.99755 7.96591 -4.07382 
-3.29384 -4.01759 -4.07281 -0.00835064 -0.0082239 -1.24037 0.0787815 0.0990204 -0.264003 
-0.0882621 -0.729357 -0.102779 -2.20259 -2.03542 -1.85229 -1.5601 -1.74322 0.278147 
0.326021 7.11662 -1.33257 -1.57576 -0.0911798 -0.0745972 0.107406 2.04168 1.91282 
0.107388 0.395419 -0.246131 -3.1304 -0.446814 -3.06732 -2.93136 -2.81515 -2.41298 
-2.39238 -2.72218 -2.67362 -2.65302 
METADATA
INFORMATION 0

STRESSTENSOR_YZ 1 15232 double
5.23675 -0.497093 2.36703 5.16404 -3.18716 1.45957 6.50334 -1.4028 6.51593 
-5.16476 1.84608 0.733296 6.85687 0.694337 -3.96031 1.93792 -0.258738 -1.8359 
3.28117 0.691618 -1.91966 0.233175 4.47999 -1.41773 1.82593 -3.82227 6.46284 
-3.88942 0.533427 3.94139 -1.45943 0.863561 -6.00779 0.716677 -0.548427 -2.58277 
-0.108944 -6.55636 -1.84814 0.544996 -5.30703 0.756994 -2.49005 -0.454203 0.392861 
-0.535968 4.1471 -4.43974 -3.13398 -1.12784 -0.248919 0.907436 1.05422 0.652773 
5.1699 0.00413372 -4.8465 -1.84082 -1.18212 -1.69208 -2.0196 -1.37479 2.11134 
-0.250337 1.01084 3.75249 0.233338 3.0246 -5.89948 -0.132185 8.49465 7.48714 
-1.17426 -1.26959 -1.16285 -6.58758 -1.63496 -5.65749 -8.14169 7.40903 -4.36036 
0.595943 0.38526 0.0806733 -0.317341 7.34117 0.236129 -1.86993 -8.16785 2.98166 
5.78547 1.99237 2.85747 -6.1939 9.76299 -3.44784 1.72776 -0.342396 2.23049 
1.832 -4.32879 1.49803 1.25329 3.06936 4.70742 2.71729 -3.49767 4.15509 
-2.85186 3.63814 1.49934 0.79159 0.903344 -0.98976 4.90243 5.05452 -0.903697 
0.223571 0.585418 -0.827645 -1.17624 -2.03889 0.397031 -0.937445 -1.93688 -2.38444 
-1.14719 -1.00263 -4.62524 -3.24526 -0.464413 0.351 -2.93993 -2.28759 -6.60908 
-0.761224 1.6956 0.384457 1.25708 3.65052 -8.45553 -2.18678 0.601348 -0.880128 
7.25547 -2.01378 2.82622 4.20738 10.5969 0.244811 0.577616 -0.240851 -1.38401 
-2.74295 -1.49674 -3.72795 -2.08387 -9.36241 1.46464 7.29174 1.50892 1.69524 
-0.397965 -0.0595189 -0.439348 -1.57766 -1.04738 -1.25069 7.99614 -2.05993 -2.27115 
-6.05481 -3.95382 1.05063 1.33179 -2.03203 -2.8226 -10.3296 -0.594508 -1.40834 
0.187492 0.659047 -0.935012 -2.95887 5.1707 3.04295 5.37676 7.52426 -4.94283 
-1.52387 -6.69295 -0.836161 -5.77891 -7.02981 4.62481 6.58099 -0.238486 1.0514 
1.50289 -2.31653 -1.97833 0.11338 -0.551456 -7.55405 1.77193 -1.43329 -1.22662 
-3.16378 -1.8588 -5.90735 11.805 7.52895 0.790893 3.36974 -0.637416 -0.396844 
5.33374 1.14339 0.721259 -1.73216 6.84677 -7.60113 -3.23141 7.18061 -7.85457 
-7.04313 -1.39313 4.27966 -0.498184 -2.02855 -0.0105445 -0.544855 0.211314 -2.05692 
10.4708 4.25647 10.9272 -2.15836 8.15764 2.69124 -5.26855 1.49714 4.75757 
2.97239 -0.189823 4.67591 4.89501 1.94879 -3.41798 -8.95786 0.735318 0.423005 
2.38352 1.0663 -7.38259 6.41423 1.21471 0.742685 0.590541 1.48351 0.958703 
-9.02468 9.14231 -8.38968 -0.862933 -1.13124 -1.79059 -4.28759 -0.898109 -3.92883 
-8.51696 4.44187 -5.77531 -9.27847 -0.526655 -1.99343 0.242871 -1.29762 7.95364 
-0.626745 3.63743 1.47494 6.21019 -1.4269 -2.88574 7.63261 6.88686 1.25046 
1.13473 -7.18927 -0.343383 -5.43997 -7.94207 1.40605 -0.591553 -1.29218 0.186744 
-5.20434 -9.43357 0.272197 0.0493071 1.53535 -1.1711 5.25566 -11.6491 2.71 
-4.33181 -1.77175 0.401667 -1.27913 0.77231 0.507013 1.07723 1.88431 4.64336 
-5.029 -0.824721 -1.93839 0.681889 1.28147 0.767182 0.121444 1.78748 1.65065 
3.19696 1.46973 -1.59297 1.41518 -1.2017 0.023898 0.648147 -0.430835 1.76565 
-0.519969 -2.27403 -1.00538 -1.36808 -4.56016 -6.30791 -2.24426 5.05927 -0.491245 
-2.42981 -0.0798531 1.12936 1.30457 1.50557 0.12081 0.480189 -0.784666 -2.2751 
-1.8214 -2.23969 -0.640511 7.39339 9.77103 -5.56096 1.66748 1.97801 -0.74332 
-1.12342 -0.485064 -0.871037 -0.645872 -1.53818 -0.393329 -1.0175 1.03635 4.21375 
3.9486 2.15659 -0.766628 8.91181 2.88745 4.97307 5.56806 -3.19921 -2.00677 
4.19153 3.66564 -5.27966 -6.9546 -1.57946 -1.60063 -0.527645 0.46327 1.78399 
6.10737 1.7889 -0.678286 -1.29257 -1.69231 -1.79225 5.01987 5.37754 -2.87889 
-3.47433 -0.987172 -1.76455 -3.92162 -7.10414 0.429052 1.07243 0.373759 0.603478 
2.07634 3.54671 0.906979 1.76135 -4.10797 1.46698 9.1144 -3.81152 -5.83842 
8.01654 -3.02192 -1.25051 1.13489 -8.98053 -2.71403 0.468052 6.59003 -2.71675 
0.523102 0.67896 1.27034 0.283407 0.0711288 4.66741 -3.04898 -1.55207 3.67372 
-5.10674 -2.67955 -0.403565 1.0246 0.773064 -0.129023 1.15634 4.92385 -7.7792 
0.275913 0.0555381 1.32693 0.170559 -5.08851 1.98008 2.81211 3.82342 7.6521 
-7.82835 4.69246 -5.08824 1.64705 1.52105 -1.86911 -0.791647 0.2899 -0.446386 
-6.77724 -0.977604 -0.95931 -2.42634 -2.3704 -2.3605 -0.803086 -4.3123 2.69123 
-7.15448 -1.46724 -6.6881 2.08638 5.59077 7.99605 9.32156 -2.13834 5.69858 
2.02572 4.44483 -1.00699 0.720513 -0.499736 -0.840153 4.59826 5.5401 -1.50342 
-3.44358 8.50233 6.06491 -4.87398 0.820149 -1.65201 -10.1789 -1.35972 0.674272 
1.30249 1.24356 -0.456915 1.1284 0.6328 0.151624 -0.178308 -1.2497 0.513161 
6.9685 3.12571 4.19708 3.66176 -0.710033 1.69112 4.34266 7.38593 4.80792 
4.10781 -2.51263 -0.6808 0.473187 -5.74795 -4.99364 -8.28246 5.87391 -7.40254 
0.0975777 -0.564445 0.668876 -6.41237 5.85224 -2.59538 -2.81571 -4.47507 -1.79058 
-0.583971 0.6157 0.31017 1.57827 2.59238 4.0515 -1.96944 -0.470188 -0.410856 
-0.3169 4.47834 6.92311 -8.24588 2.92618 1.51454 -5.43421 -4.89892 0.979317 
1.92623 1.59454 0.728959 2.97066 0.956958 -1.40855 1.75903 1.64216 -8.71661 
2.0424 1.29204 1.49973 0.799384 -0.208633 -1.10716 -1.03969 2.75779 0.397133 
-3.93337 -0.122035 -5.871 -7.28517 0.858236 0.787311 0.922673 0.322916 0.74395 
0.498518 0.051158 3.7986 4.05481 4.13377 -1.33455 -2.32879 -0.266944 0.0357886 
-0.992905 -1.43418 0.139134 0.70374 4.75653 -1.48553 -0.792711 -1.06095 -1.03506 
9.27643 1.13179 0.401309 0.860366 -0.0260839 -0.113151 1.13635 1.44871 -3.51899 
3.93628 -2.6278 -0.660984 0.243534 0.658095 0.944362 -2.39405 3.76055 2.08813 
0.573625 3.09644 -0.68734 1.78667 -4.90353 -0.504988 0.50182 0.723896 0.219228 
-0.200408 -1.99296 0.556155 4.46467 -0.60499 -0.775021 -0.878157 0.823613 1.96186 
-0.28508 -3.3278 6.14696 5.05495 1.16371 1.31221 2.88497 -7.14553 4.87833 
3.8701 3.27077 4.005 -7.51867 -0.690469 0.346858 -0.425343 -0.42209 -1.56786 
-0.900673 -0.525043 -0.895599 -1.47782 1.43541 -3.4634 3.90467 1.99671 1.20006 
-0.144407 1.84288 1.42809 1.41425 1.5063 -0.36645 -0.466595 -0.776818 -0.962335 
0.330663 -0.884721 -6.27946 -4.66171 -8.00489 -0.588523 2.92131 2.36253 -1.28995 
0.520082 0.976322 3.2611 1.41296 2.22329 -1.38701 -0.669203 -1.97642 -0.524063 
-0.287219 1.57562 1.02085 1.99552 1.56986 1.25806 -10.6212 -2.75638 3.68641 
-6.5416 -4.76253 2.39598 2.5401 -5.45625 -1.4101 -1.496 5.27481 -0.458929 
-0.394332 -0.551761 -0.922368 0.427543 -2.51433 -2.22492 -6.31278 -6.6166 -1.44421 
-2.93193 -3.14305 -1.12592 -1.10611 -1.19464 -1.18514 0.0627246 3.13068 1.92865 
0.058293 0.678043 -6.47223 4.81306 -6.20193 -0.632936 0.0223744 -0.410208 1.71657 
2.94354 4.19059 12.3692 -0.0528843 -0.554763 0.253328 0.014935 -0.00805838 0.169411 
-9.90441 -1.13714 -0.605185 0.00598908 0.684603 -3.12767 -4.62599 -2.71049 1.03413 
1.4909 0.753735 -0.0178764 -0.779317 -0.654437 -1.91157 -6.30933 -2.86375 -3.02879 
-1.59058 -3.2162 -2.18065 8.3804 11.1478 -1.41822 -1.8721 1.73369 1.00798 
2.26609 9.22049 -0.516726 -7.59604 -1.29712 1.20251 1.24277 -8.91741 -8.71712 
-6.601 -0.639066 4.48088 -0.856198 -0.656529 -1.4619 -0.800009 -3.10531 -0.636596 
7.87798 -5.57592 0.638018 2.31278 3.44081 2.27697 0.725495 1.49909 5.33435 
1.39422 -7.74133 -6.74412 -1.62089 -2.3062 -1.78338 -1.52158 -1.59539 3.94817 
5.14255 6.31449 1.33769 1.62936 1.32391 0.74926 -0.504981 -0.783057 -0.730792 
0.986853 2.43346 -8.09734 -1.76639 10.1379 0.874603 -7.28692 -8.28357 0.188269 
-1.04636 -6.93953 -5.74344 -1.7117 8.56576 0.348627 7.83036 -2.54295 -5.55718 
-3.19665 0.573526 -3.68263 1.53376 1.51474 1.29378 -1.97812 -1.90701 -0.177827 
-0.168688 -2.55278 -1.17956 -0.756594 -1.39423 -0.838088 6.66433 -0.217337 -2.11506 
0.733643 2.06272 -0.996052 -1.15636 0.976951 -0.159003 0.155859 0.0832101 -0.644768 
-0.635387 0.978429 -1.54691 -2.41073 4.53346 4.59272 -7.02585 -6.1756 -4.91473 
-4.81881 3.50816 2.3144 3.23326 -0.786499 2.60736 4.80306 2.66458 2.66653 
-6.02566 -5.33609 -4.23114 -3.39802 -3.66458 6.99585 5.37784 5.32254 4.88932 
4.03977 7.21018 -2.16217 10.375 2.28669 7.91936 7.04398 -8.59432 -11.4185 
1.58701 -1.70296 -4.02765 -4.96727 4.41751 9.51624 -8.7393 9.72356 -0.65568 
-1.6835 -0.6649 4.16944 -3.29629 5.44868 -1.55489 5.53838 4.41489 -5.56558 
6.83789 -2.28126 -5.96388 -0.597396 -7.68286 -2.92421 0.160067 1.74162 -3.78856 
-1.13752 1.52718 -1.21284 -1.67509 -2.01863 -2.93781 5.2421 -7.56978 -10.4393 
6.92287 -6.58845 1.26601 1.20647 4.95178 -1.41342 1.03779 -7.20606 -8.4511 
-0.411215 0.604481 -1.47654 -0.725852 1.46381 -3.84023 -2.72484 -1.60598 8.10927 
3.88443 -6.01584 -0.863842 4.72838 4.24984 0.216415 0.681583 1.37307 0.0206695 
1.22836 0.934152 1.62048 4.74418 -1.6147 -1.13924 -0.903503 -2.15914 3.93313 
1.41657 4.35321 -0.268282 2.02892 2.21624 1.95945 0.510514 0.165674 -0.681305 
-0.44431 -0.130767 4.08081 0.831076 0.369802 -0.489458 -0.403722 0.331073 0.286206 
0.746348 -0.0679394 -1.09134 -1.12115 -2.26153 0.929214 0.0587493 4.99205 -2.06548 
-1.51737 -1.02438 -0.890756 1.09237 5.52659 4.80349 9.57788 2.25375 -4.45495 
-1.06526 -2.07013 -1.89851 -0.469908 0.45522 0.677496 4.63517 1.80053 -4.8614 
-4.76279 0.396249 0.654914 0.661972 0.764052 0.0415966 1.28512 0.939427 0.117984 
0.328251 -1.26643 -0.992311 -0.836023 -9.66618 -7.21088 -7.45331 -3.90089 -5.00234 
0.76712 3.76689 -1.50488 2.65201 -1.91839 -1.68965 -4.79782 -4.31682 7.52841 
-3.50274 5.69845 2.96412 2.82369 3.43292 5.49039 -3.12146 8.29581 10.4063 
10.1115 -0.991013 -0.988796 -1.32723 5.61893 -4.05258 -1.65702 -3.81863 1.05039 
1.43741 0.876062 0.824959 1.18708 0.197196 -1.56022 -1.38198 1.14421 -0.596908 
1.79037 4.24858 3.16642 3.99714 11.3068 4.04307 2.03775 0.100459 2.01624 
0.664624 -0.297192 -0.880095 -7.33306 0.351287 0.663093 1.83894 2.82483 -3.37095 
-2.72092 9.27147 -6.03427 7.21797 1.29524 0.221595 0.450274 3.84145 3.57226 
-1.39297 0.52398 -0.134099 2.53287 1.79334 6.5761 -0.251854 -2.3312 -1.44976 
-3.44966 -3.00045 -0.343194 -0.364138 -6.10054 -7.35734 -5.83503 1.97683 -11.0585 
-9.0841 -0.329614 -1.32907 -1.71093 -0.989991 0.182684 -0.596282 0.438441 1.98315 
0.411082 -1.88326 0.711732 -2.80423 0.128278 -1.42585 -2.17655 0.258611 -0.597556 
0.686664 0.568247 3.86468 -3.00876 1.80751 4.31533 3.99394 2.98639 -4.7981 
-5.99944 -3.19626 -0.667565 -1.3155 0.864948 -3.60353 -0.164462 -1.35701 -1.49332 
-1.55561 0.502241 1.49745 0.904382 9.68268 -7.4287 9.27229 11.04 2.16056 
0.0244652 0.840849 0.403199 0.225899 0.333991 9.69519 6.41354 8.25638 5.39217 
5.04051 -8.2984 -1.45663 -7.65799 -5.35136 0.545098 -1.289 0.596192 -3.44602 
0.657406 -2.78209 0.67712 -2.2782 -0.195865 0.308243 0.752522 0.422356 -7.63355 
-9.24409 1.27445 -6.33243 -2.77255 -2.21292 -2.22825 -1.21028 -3.62581 -2.22785 
1.52162 1.59436 3.75326 1.43051 0.36924 1.17844 0.546435 -0.140733 0.53171 
-10.1179 0.862983 1.11199 0.908165 -0.702842 -0.406844 -0.554501 -0.694516 -0.820841 
-0.977892 -1.32286 1.47539 1.26768 3.051 4.11965 5.33977 -1.78871 -2.81416 
2.75563 -9.0344 -6.95241 -0.875077 10.0084 -2.79557 6.08237 4.90492 5.99981 
3.44292 4.30491 -3.40125 -2.62203 -7.17871 -6.20875 9.19572 -4.92935 7.64556 
-4.19029 5.19553 -6.35667 0.718399 -0.816257 -6.9994 -7.27747 1.25473 0.527519 
3.24789 3.90177 0.39797 -1.10683 -6.24709 4.74743 -0.052835 4.12044 -0.944216 
-1.60084 -7.58585 1.83043 2.1417 -1.83519 0.328263 -0.470762 2.2382 -4.75833 
-2.10612 -5.98184 -5.65894 -6.80404 1.2619 0.858299 0.185536 -7.58516 2.51889 
-6.37951 -5.4415 -2.52359 -2.97324 5.26681 -1.24736 -0.513679 4.27206 3.23354 
2.55341 1.39738 1.46215 2.10141 1.30458 1.11667 1.55543 -1.17946 -2.47943 
0.297338 0.233661 -0.447894 -0.257534 -2.20344 4.63322 0.609853 0.607106 2.45304 
1.74167 -4.59886 0.862246 -5.03787 8.14045 5.88849 9.76495 -0.0685263 0.863226 
2.90686 1.27501 -4.80976 -1.61825 -8.68598 -9.68696 -1.48992 1.65727 -1.32965 
4.33043 5.23958 1.32957 1.28698 -1.7733 -1.19364 -1.29915 -1.05473 1.42769 
-6.8362 -0.345149 -6.32534 -4.87433 6.1482 -2.16383 -3.62239 1.15385 -2.11088 
3.97151 5.78476 -4.6584 -4.43406 4.95181 -3.63343 0.373158 -2.36586 7.5841 
6.32549 -2.57173 -2.45995 -1.31828 8.55328 -0.336908 -0.427774 -0.661809 1.28788 
3.13608 1.53262 0.931789 6.59021 -4.22794 4.53433 4.7245 7.37148 0.789263 
1.50193 0.832658 0.830051 -0.909469 0.624484 -0.40337 -0.125296 0.523113 -0.918911 
1.19584 1.43198 9.48351 4.19556 8.80147 -1.90524 3.31085 -6.61907 -1.89251 
8.91339 -2.02365 1.21832 7.73513 -0.994231 -1.82891 -1.71901 -6.18048 2.11017 
3.30106 -2.60271 3.35419 -3.33241 -1.20509 -1.57455 -2.7824 -2.00879 -2.25613 
-1.53611 -1.12917 0.894108 -0.200938 0.552366 0.409631 -3.79316 -7.19862 -5.10887 
-4.41264 -7.2752 -5.53314 -3.17269 -6.20229 2.24918 2.8132 0.334669 -2.53999 
-4.15441 3.59387 2.12539 -1.76169 -0.966176 -3.34176 -0.396661 -2.74383 -1.98112 
-0.0780164 -8.24581 -0.56794 -1.17532 -6.87474 1.55052 -8.20051 2.25459 -9.17547 
-9.8885 -4.93986 1.24954 1.28157 -4.95991 3.36806 -1.0246 -2.45785 9.98144 
-0.384404 -1.58569 4.4014 4.18032 -0.500498 -0.576809 -0.227452 0.536526 0.576593 
0.735881 -0.219685 0.663117 -0.0643786 0.793953 0.60607 0.297332 0.644675 0.585999 
0.529965 -2.98256 -0.332386 4.48551 3.72669 -4.7081 -3.14706 -1.21745 -0.712366 
-6.61619 -1.11996 1.57364 -0.996594 -0.513319 7.09896 5.83694 9.38337 7.8838 
-2.96666 -0.079602 0.0408333 -2.08627 -4.1966 -5.17122 -1.47338 -1.82347 -2.71955 
-1.23626 -1.01696 1.83046 0.902177 9.95013 9.12291 -4.26873 -4.29799 9.67573 
-4.64953 0.695197 6.35609 0.254755 0.552251 0.159551 3.556 2.63605 -2.89261 
-2.13383 -2.40195 -6.49054 0.988217 -0.456393 3.11154 7.55181 -0.354495 1.33675 
0.494101 0.699397 -2.308 -1.25676 -0.595473 -1.00176 -0.75173 -1.32869 -2.07719 
-1.10359 -1.28358 -0.60383 -2.92521 -2.56991 -4.74132 -1.87439 -4.22511 -5.54189 
0.99606 -0.851426 0.456036 1.82596 0.97223 6.2331 5.60357 0.516934 -3.90658 
4.31487 0.890366 -8.50098 -7.94895 5.1779 -0.251255 2.26069 2.39099 1.41267 
5.12309 5.11158 5.11329 2.39243 3.37168 -1.68198 5.72327 1.99781 2.15436 
1.413 0.726449 1.21125 4.41632 -3.11169 3.30126 1.01414 0.557574 -1.35238 
-3.26018 -1.99339 -0.917701 5.04621 9.60719 -1.78718 1.8479 1.27768 1.60068 
1.72624 -1.34737 -1.18035 -0.225424 4.45196 -1.54317 1.36615 2.77245 -0.777832 
-1.3948 1.1692 2.79678 4.33888 -0.702069 2.02824 1.05031 4.02332 -8.70605 
-5.88372 -8.53856 -7.8607 1.96572 2.82654 2.26175 0.274893 0.201922 -0.244957 
0.204079 -5.79761 6.1305 -3.7764 -0.824465 2.32762 -0.905379 -0.836317 -0.0126979 
1.06777 1.49547 0.852047 1.81969 0.399971 -4.93415 -1.63652 0.0379053 -3.22899 
7.28586 6.76755 7.62435 -1.32669 0.0159775 -1.81379 1.19402 -4.58876 -6.15976 
1.29418 1.09681 2.50857 4.54202 -11.6048 2.80036 1.22361 6.13175 6.13106 
4.31079 0.14463 -0.446931 -0.40415 -0.608479 -1.27692 -1.13348 -0.823319 -3.22176 
0.628562 -4.01851 -1.35783 1.15414 -2.43536 1.84003 -0.302859 1.63053 1.09464 
0.845333 0.445871 -10.4423 -9.27442 -9.45568 -3.92462 -6.61405 -8.54173 -0.578246 
-1.25748 -1.10261 -1.06782 4.50561 1.63894 8.56694 -1.1766 5.5016 4.63381 
5.66806 7.14711 -1.32546 -0.438554 0.145494 -5.17586 4.26962 -0.171771 -0.751198 
-1.29838 0.453822 1.14269 6.17491 -6.61367 -8.43919 8.36996 5.94345 -0.902359 
-0.988346 -2.69186 -3.68738 -3.87395 2.20927 -0.534231 0.344851 0.556298 1.12049 
0.689691 -4.57032 -0.664332 -3.88722 -0.243985 10.7558 -11.0685 4.87205 2.9256 
3.75083 4.05999 -6.54142 -4.84336 1.22017 7.93923 -0.106625 -0.944552 -0.665348 
-0.302347 -0.141281 1.27342 -0.425022 -2.1114 1.70386 2.15719 2.08022 -2.51112 
1.65943 3.5335 3.12721 2.94229 -7.76103 6.22973 0.32242 -0.419727 9.95998 
-4.06661 -0.993221 1.7099 0.995772 0.143661 1.20645 -0.367569 1.74118 0.976207 
3.14455 5.02769 4.89776 5.34536 -2.02803 0.958408 -1.3559 -3.68759 -2.57237 
0.963941 3.27821 -3.50637 -8.18934 0.972287 -0.997209 -0.537951 -0.0909755 -0.254991 
0.139417 0.437331 -8.9106 -7.96979 -0.142532 0.835847 0.0521966 0.667849 0.57037 
-0.274176 -3.80811 -8.46916 0.427521 -1.93719 -6.43121 -6.56179 -1.84987 -7.66203 
-1.56485 -6.3168 4.96343 6.87873 5.1217 -1.40977 -0.783411 -1.06926 -0.827707 
-1.78277 -2.50598 -1.2325 -1.43338 -4.51318 -2.17557 -1.84184 -1.06464 -1.45159 
-3.65279 0.655843 -8.56583 -0.700216 0.502424 2.27622 -1.50975 1.09201 -2.99637 
-6.67734 -5.81747 -5.96737 -6.65043 10.1812 10.8256 2.96769 1.71442 5.59546 
8.33609 -7.18299 -0.0881091 6.35557 6.90706 -1.66634 -1.71399 -0.121653 -1.37815 
0.508203 -0.714819 0.341923 -2.5879 0.668661 -0.922564 -4.467 1.53132 1.35762 
2.35674 0.441762 -0.535903 0.471682 -4.97268 -4.89904 -2.33919 -5.35098 1.2215 
0.611295 -0.142817 -3.32769 0.827629 -1.5359 -4.37716 0.350212 2.78879 1.84 
1.72263 -5.22521 -3.69617 -7.37193 -3.05644 1.6854 1.29084 1.47704 3.89599 
1.36702 -1.04586 -3.9108 -5.5382 1.61358 3.05753 1.77893 -9.84645 4.86484 
1.09631 -1.49061 -0.374976 -2.75812 -3.26155 -1.91826 0.881341 -2.00414 -1.50179 
-2.53188 0.9665 0.173991 1.15385 6.14486 0.930116 1.50306 0.496562 -1.21097 
-1.10603 -1.46511 -0.710954 -0.429558 -1.76322 -0.218715 -0.111021 -0.53688 2.49314 
-5.26228 -3.66514 1.10901 1.72386 0.438076 2.56987 -4.3185 -4.19347 -4.77495 
-4.82463 -4.97984 0.949948 1.87977 1.91413 -2.82556 -1.22774 -2.77322 -0.151091 
-0.772668 0.96706 5.33543 1.59101 0.736809 1.83974 0.934074 -0.598176 0.592327 
-0.266736 0.679239 0.914521 6.77472 -7.59315 3.58446 10.8991 12.202 -0.464374 
-0.772491 -0.409807 1.23133 1.86061 1.44606 -0.545859 -0.563466 -4.5528 -3.26325 
4.40912 3.18114 6.28894 1.29086 0.382605 4.27853 -0.323387 -3.9189 -4.0567 
-3.54507 1.19438 0.857215 0.149524 0.863925 0.710109 4.31015 -1.79322 -0.826669 
-1.62027 1.34227 3.37884 3.07351 -0.295438 0.091564 0.0935054 0.422439 -4.72419 
-3.8783 -1.91307 -4.63781 3.11018 -4.64334 -1.5922 -0.503388 -0.813346 -0.791604 
-1.37706 -2.73049 1.96995 4.91005 1.83456 0.431766 1.24174 1.59393 -1.74122 
-1.75921 -1.67168 -2.14248 -0.916222 -0.732665 0.790231 1.43802 0.246572 -11.0689 
-10.0651 -10.7028 7.32112 5.30654 5.29008 6.93803 5.73404 6.09928 -1.85904 
-1.34037 2.69688 -1.12019 -1.35267 0.277656 -1.26136 -0.429232 -1.06073 -0.260454 
8.0085 -0.800046 -2.62547 -6.52322 0.686679 0.702117 0.792162 0.368085 -2.05971 
-3.47803 -1.34112 1.72603 -2.41275 -3.09487 -2.46969 0.0926399 1.36369 1.65971 
1.35696 -3.6728 -0.332453 -1.69257 -1.20936 -1.29841 -2.24343 -1.46044 3.64294 
8.59604 5.38804 -0.49451 -1.7309 -0.475285 -0.359998 -0.920961 -1.16055 -1.85123 
0.304698 0.885611 -1.14794 -1.543 -0.951698 -7.81688 -8.41014 9.80735 1.33424 
1.11445 1.17201 1.34012 -4.31317 -6.79251 -6.76225 1.46237 1.28819 0.986999 
1.22326 2.51669 -0.884527 -4.01665 0.690157 0.625585 0.794842 -0.0110884 -2.96025 
-6.07907 0.0235724 -7.48568 -2.10796 -1.71184 -3.13788 -2.19977 -0.345289 -1.3882 
0.136911 2.07799 0.494333 0.839381 0.390554 3.16436 4.99469 4.08212 3.7515 
7.7414 0.120359 -0.0968956 -0.338383 0.773643 2.50694 0.817243 1.40393 -4.02275 
-3.89717 3.05674 -1.48951 -1.63129 -2.10923 -2.59915 -3.31372 -3.2454 5.108 
3.90076 4.09168 3.95253 -5.94838 6.64438 -4.21964 -6.41192 2.03457 0.428997 
0.647768 1.0673 2.46261 2.1541 0.707462 1.63904 -0.182945 1.12757 2.7755 
2.20073 3.30361 4.18959 3.22164 2.05415 8.98979 6.84081 -0.733622 1.89677 
0.672059 0.846294 0.573943 1.03775 -0.339388 1.91816 1.81043 -4.06906 0.212261 
0.559786 0.547449 0.630991 0.467161 -3.97256 -3.30507 1.67959 -0.418043 -2.50364 
5.86361 0.789478 -1.02895 -0.500446 1.3488 -0.625745 0.162426 4.62584 -4.95346 
-1.66088 -2.2328 -1.87052 -2.64818 -2.03244 -3.16813 -1.67763 -0.346244 2.64598 
2.95807 2.21692 0.83037 -0.604579 4.57401 0.635109 2.2924 -0.299738 0.310847 
8.47235 -4.10282 9.34015 -9.72746 -6.21756 1.40043 1.7103 1.57652 1.43418 
-0.983149 1.44856 -1.94058 3.11287 -4.59569 0.538332 0.637985 0.497758 0.652313 
-2.59794 -2.63099 0.263024 -1.06094 0.916298 0.414372 -2.39018 -1.03038 -0.174649 
-0.6795 0.248022 0.121967 -1.43398 1.08297 1.11327 6.68501 1.56314 1.09019 
0.83163 3.61627 0.810693 -0.33795 1.10002 -0.600576 1.48684 1.40329 1.47779 
-5.72531 3.59349 1.78322 0.188394 -6.31614 2.14237 1.67873 1.27987 2.18007 
1.76455 -0.614421 -0.670604 0.245008 -0.485071 0.244402 0.0362736 -2.56037 -2.477 
-0.265821 1.09273 1.95272 -8.45864 -8.49532 -7.00609 -5.07995 -7.61723 -2.52444 
8.94446 5.12695 5.24444 5.43292 2.01307 2.0757 0.682272 1.65421 -1.00552 
0.647768 -9.38094 -3.80808 3.77929 -8.4757 3.24195 -8.5067 -1.45867 3.66699 
4.6949 3.51533 -1.84149 2.14798 3.96589 1.47473 1.78303 0.126024 1.31922 
1.26759 1.09912 -1.21631 1.51846 4.04623 6.0977 7.33696 5.88992 -1.92038 
-5.39025 -1.72292 -5.13269 0.539698 -6.4315 4.5836 -5.0746 -0.953589 -3.9496 
-0.783443 -0.193429 -0.349908 -2.41614 -2.76531 -3.45103 -2.32867 -2.15968 -1.3551 
2.29402 3.40601 -6.83075 -7.77687 -3.36215 -4.9893 3.0732 0.995774 3.43017 
-1.01486 5.12598 -0.547318 -1.2762 -0.329345 -0.583377 -4.49734 9.93989 -5.85061 
11.2277 -1.35115 2.06521 1.25291 1.54614 2.13612 1.853 1.15561 -5.84887 
3.30496 -8.60038 1.3171 0.0191998 -0.183043 -3.33609 -4.91693 3.70085 2.81583 
1.18517 1.53956 0.0146278 1.70996 2.9337 0.420823 -0.350561 -3.58931 -1.7834 
-1.50453 -1.95355 5.2498 3.30882 4.70464 4.7322 1.91487 2.52586 -4.01091 
0.925568 0.523244 4.57036 5.01883 -0.494237 1.3041 0.459135 -6.69653 1.21546 
-6.49383 6.77128 0.768718 0.102816 -0.185353 1.45569 2.87499 -0.331819 -0.45298 
-0.498902 -0.355058 -0.503923 -0.521321 -0.782147 -0.00393883 -0.313841 -6.09893 -5.62482 
-5.06131 3.78537 0.513503 -0.76572 0.216355 -5.8899 -4.13489 -5.23096 -4.88383 
-4.65585 -4.75372 -2.37738 2.84958 2.21057 0.926511 0.314898 -1.0716 -1.36874 
0.472271 -0.0748775 0.209823 0.235835 0.101048 0.0544231 0.859923 0.727168 0.685284 
0.602549 1.39365 2.02597 -0.108467 -0.302291 -0.0358927 -2.06742 3.11208 -1.09563 
6.10602 -4.09643 -5.83851 8.10565 2.64832 2.83361 3.01136 3.74482 -1.13673 
3.88219 -8.6019 -7.23688 1.72035 -4.25192 1.22732 0.954404 -3.93864 2.42786 
1.39769 -4.50704 -5.09258 -2.11979 -2.1048 -1.78304 -6.67833 -0.596512 1.92784 
4.09898 3.86019 4.16304 -1.49313 -0.820705 -1.08671 -1.47242 0.0249964 -0.127876 
0.626457 -1.18067 4.81071 4.70324 -3.89975 -1.26264 -1.97563 1.58277 0.0274168 
-1.84125 -1.14996 -2.56912 -4.89206 -2.38065 3.59225 3.08044 2.55037 -2.33903 
-1.78383 -2.35774 -0.581793 -0.197857 -0.985373 -0.418204 -0.96922 -0.162053 -3.09905 
-2.17592 3.54575 2.61043 -1.91284 -4.03664 -2.84963 -9.83988 4.4787 -10.177 
-9.02491 1.03262 -10.755 3.61566 -3.72019 -8.71915 -10.5396 -2.32107 2.5486 
0.120714 -0.701839 -1.31476 -0.347796 -2.69857 -3.1873 0.73986 0.205215 -1.83502 
-0.701693 -3.50661 -0.660908 -5.34371 -5.83961 8.85948 -2.57829 -1.90501 -5.40174 
5.48504 4.08139 -3.5695 0.78073 0.710505 0.514368 0.469619 -9.66538 -2.73204 
-1.49216 -1.50819 1.28806 0.959442 0.881383 1.43691 -0.874923 -1.10987 1.62346 
3.01965 8.752 -1.01658 -0.697082 -6.4049 0.466156 0.808552 10.0469 7.20579 
-4.36621 -2.15487 5.1675 2.09019 3.4675 3.54255 2.63077 2.18699 2.39659 
2.0063 -1.46727 -1.69597 3.12113 -6.11395 -0.963219 -1.06569 -0.513182 -1.49702 
-1.15949 -1.08836 -0.807915 -0.502032 -1.21944 -0.783409 -0.269634 -4.21723 1.40998 
-0.809915 1.69713 6.89619 -6.28941 10.7403 5.57004 -2.61521 -1.95852 -8.68905 
-7.86614 -1.05302 -8.82108 -8.57197 3.41963 -6.30109 -5.9095 -9.44625 -5.82518 
0.746681 1.54156 0.681865 0.466581 -0.874488 -2.85128 1.31663 0.83185 -0.803341 
-1.4554 0.233579 -1.02584 0.483356 7.86062 7.61649 -0.463541 5.67333 0.236126 
3.81352 3.94732 6.72694 0.163058 0.101964 0.236263 0.0959283 0.24357 0.587866 
0.741942 0.536596 0.439545 0.944043 0.594028 0.620135 0.636122 0.675147 0.827024 
0.668908 -2.71366 -2.73643 -4.25313 -4.91586 0.278137 -1.30647 -1.18155 -1.53536 
-0.975948 -0.0736036 -3.00084 0.0272463 -2.25578 -3.44788 -1.78846 -9.24571 -6.8594 
0.172984 -4.4165 -7.28119 7.53477 1.12572 5.64232 -1.66993 -7.1498 -4.09017 
-3.07199 -7.72895 -6.24083 0.330972 -6.19739 6.10765 6.1684 6.29393 0.178304 
-1.15337 -0.999135 -1.5748 -6.28272 8.00282 4.34504 -0.625842 -0.84349 0.718116 
10.4723 9.25252 8.95376 9.56957 -2.47448 -4.6985 1.28415 1.43129 0.815414 
1.22985 1.30628 1.03068 9.24348 -4.32583 4.15356 -0.568482 -1.37748 -0.390939 
-4.68106 2.60933 -8.33479 -10.4126 -4.14124 -1.82891 -6.67488 -0.2704 -0.05218 
4.18855 5.80845 5.45452 5.34937 -5.33936 -9.26218 7.2808 7.24809 7.36848 
7.55135 9.52414 1.59579 2.92448 3.42618 1.92937 5.93354 5.88665 -2.88922 
5.14552 0.945429 -1.68107 -0.405891 0.620583 -1.18009 -0.285994 3.92812 -1.2053 
-3.41742 -0.696338 4.76885 -4.5812 -4.56594 -1.24979 -1.27044 1.13533 1.31802 
0.607847 8.82152 1.52769 1.21847 1.46336 0.807821 0.763133 2.41248 1.90691 
2.82054 1.10052 -0.548869 -0.568604 1.59974 0.0225768 1.37387 0.136119 -0.073767 
-0.191551 -0.399834 0.193025 3.70007 7.18151 8.59742 5.38776 -1.39978 -1.33556 
-1.06384 -1.28064 -0.497526 -0.540856 -0.517648 -0.614004 -0.998213 -1.22505 3.26793 
3.94653 3.51744 -4.24957 7.12893 -1.59158 -2.38274 1.20431 -3.94535 -2.91116 
-3.39287 -3.80378 -3.2709 -1.42179 -0.601277 -5.293 -2.25063 2.95482 7.87912 
-0.468588 -0.849875 -0.665888 0.467092 0.291736 0.223965 0.555511 0.39623 -3.75004 
-2.71303 0.9253 0.413784 0.695023 -0.157993 -0.234836 0.111803 -1.90394 -1.721 
0.956747 2.10201 3.34359 -1.18969 -0.978745 -0.950485 -1.99538 -2.77346 -1.37762 
-1.24294 4.01487 10.0202 7.32664 -10.9682 -9.2998 -9.24201 -11.1282 -11.8801 
7.26888 -2.28835 -3.45795 -1.71451 0.461537 -0.556678 -0.718523 -1.23367 1.19738 
0.251213 -0.0698783 -2.09926 -8.17187 8.69938 1.94461 2.24855 2.23541 0.909704 
9.23771 0.891464 0.212621 1.17312 0.443499 -0.8729 0.375402 1.29854 -1.30117 
-5.32133 -0.185143 -4.74991 -1.75017 4.75559 -1.22959 0.469165 -1.33029 2.72669 
-4.58048 -6.70193 -7.6148 -6.28953 -4.16672 -2.30753 -3.14124 -1.50052 -1.3488 
-0.00184446 -0.917095 -8.80144 -0.621669 -0.203911 -0.250049 -0.0545064 -0.0816591 -0.0296855 
1.78662 1.45035 1.02083 -0.406818 0.196562 -0.692468 6.46146 -3.24618 1.96842 
3.33962 1.27118 -0.592129 -0.463445 -0.670402 1.38807 1.80414 -6.86635 0.709345 
1.61384 2.68257 0.359367 8.2053 -4.49174 -1.42516 -2.61321 -2.42479 -1.68317 
2.1281 2.61669 2.31212 2.03439 1.92407 2.46392 1.3835 2.6943 -4.46719 
-3.57368 4.68777 0.913478 1.3192 1.73123 -3.94346 -5.35034 -3.47182 3.42972 
3.67974 0.554257 -3.28 4.03351 -3.39401 -0.566546 0.813562 3.81207 3.45326 
-10.1009 4.19886 2.53595 -10.3138 -3.89099 -4.42041 -0.990052 4.83311 -3.41189 
4.84545 -2.84383 -0.920931 -0.754517 -0.602164 0.527496 0.401989 0.242703 0.750679 
2.47274 -1.20444 4.24153 -0.548124 0.284111 0.405847 1.41081 -2.60396 -3.72522 
-1.01515 2.79855 2.71083 1.18126 2.54701 2.70917 -5.33768 -6.07588 -7.27939 
3.16941 5.17232 -0.716868 3.20356 1.02882 4.40661 -1.13685 -0.425006 -1.95797 
-1.91635 -2.72485 -2.50648 -2.43596 -1.20731 0.541311 -1.44775 -0.856219 -1.13434 
-0.662117 -0.436114 -0.464283 -1.04409 -1.21978 -1.05158 -0.758956 -3.04883 0.609338 
0.828332 -2.69804 -2.01331 0.543507 0.230959 0.432104 -0.350535 0.200564 0.0486892 
-0.207885 0.246134 -0.357154 0.703926 1.11967 0.695233 -3.84648 -4.71049 2.29292 
-0.632892 -3.59528 8.3892 -0.91806 9.19755 -0.720885 -2.29464 0.146559 -0.305712 
-2.27813 0.593437 -0.441573 1.38919 -0.68659 -3.35961 -4.12312 0.0359973 -3.27101 
-2.71126 0.0790001 -2.9606 -0.619308 -0.547257 -0.621146 -0.663081 -5.59215 4.26228 
-0.636292 -2.7827 9.7321 -0.0791025 -1.29075 1.03768 1.47759 -2.66744 -2.41799 
-2.83855 -0.732621 2.5309 0.153901 -0.857385 -0.491215 -0.292108 0.437283 -2.97251 
2.28418 -3.42522 -0.813 -0.954622 -1.25071 -0.0354605 -1.98321 -0.00697606 -1.44811 
-10.5229 -1.69608 1.45042 -1.65176 -2.40962 -2.86756 -1.49816 -1.06019 -1.78497 
-3.52284 -2.36976 -3.97556 -1.26646 3.56246 0.812529 2.33672 3.36152 -0.71713 
-0.655887 -1.81808 -0.755633 3.09391 5.31076 5.45352 -4.72389 -0.687154 3.67843 
0.814986 -2.77624 -2.07942 -1.4259 -10.0254 -2.57402 -0.00676375 -3.92431 -3.60031 
-5.91709 -4.99011 -2.22015 2.07366 0.35446 -1.12014 -2.72172 0.792943 -2.03818 
-1.68323 -3.55229 4.63897 2.56696 -1.10826 -0.555967 -0.797469 -0.0319328 0.941607 
0.590258 -7.8975 12.2819 2.48571 5.88444 -1.95883 -1.06057 -0.748804 -0.862056 
-0.505697 -0.627996 -0.720138 2.89628 2.99959 1.47577 2.47845 2.89232 1.69309 
0.57579 1.52527 -0.983977 -0.720981 0.728133 -0.605071 -1.90401 -4.60838 -1.89039 
-0.642652 1.33428 2.15173 0.401747 0.133059 -2.28446 3.86475 1.75274 -1.38436 
-0.221972 0.19083 0.018167 0.497731 1.60036 -8.25567 -1.65151 -7.97586 -9.41794 
2.9204 1.90593 -0.070606 2.79256 1.52922 1.36802 -3.30871 -3.66743 -2.03021 
-4.19656 1.05226 1.19659 2.31941 1.90881 1.16623 1.56974 2.18359 4.14839 
7.36583 6.60598 -7.0633 2.19775 0.188038 0.734075 6.54533 -5.08523 -2.78777 
-2.016 0.244952 -1.62522 -0.569076 -1.35244 -0.12346 7.93622 2.99151 1.25031 
-1.49828 -1.36548 -1.42107 -0.881744 -1.2972 -1.89679 -1.07721 2.39668 3.46276 
3.58085 0.560623 0.584391 0.627215 -3.18278 -3.46431 -2.54576 0.313751 0.958944 
1.47471 0.0809777 0.0544016 6.66069 10.07 -0.548229 -3.15336 -2.72133 -1.20728 
-2.48214 -1.46173 -2.23331 -3.07526 1.10501 1.10911 0.0190745 -1.17245 -3.04663 
-0.891423 2.9216 2.6696 2.65012 -4.24008 3.906 -1.64863 -1.76545 -3.04737 
-3.33328 4.07287 -2.11033 -2.20143 -1.24625 4.16436 -5.62571 2.54144 -4.63235 
-1.54562 -2.61013 6.30597 -5.48824 -6.254 -3.84207 -1.58024 -2.90664 -0.569543 
0.616038 0.168024 0.298899 0.48806 -0.831727 1.12086 1.6422 4.73172 -2.95714 
-0.00690852 4.21733 -6.21118 5.14824 -1.94852 -6.86494 -2.94925 -1.61495 2.22739 
1.83086 3.08631 1.0923 2.12523 -0.419317 0.618806 3.59683 -2.2827 2.3279 
7.29251 3.14943 8.49654 4.69731 -2.73167 1.28619 0.789147 3.09766 3.06013 
0.171855 0.601561 1.20233 1.61064 0.91742 1.01037 -0.220723 1.71205 1.03561 
-1.0968 7.01336 2.58977 -1.24144 0.270209 -1.95286 -2.84447 -0.370364 -0.553437 
-0.544226 3.42433 -4.3196 2.60245 2.24154 0.618754 -1.44594 -1.63427 -0.474598 
0.113118 -0.60224 4.33332 -4.38665 -1.58561 -0.168172 -0.26458 1.254 0.548535 
-0.936196 0.430944 -0.327105 -1.18755 -3.68631 3.3076 -2.00094 4.23094 -2.34601 
-3.70117 -2.92036 -2.32754 -1.11648 -2.51948 4.18011 -1.3158 6.74974 -3.64293 
-0.76104 -0.793517 -1.20403 -1.26686 -0.872342 -7.33728 3.89895 2.34552 0.804412 
1.71021 -9.21308 -8.05904 -5.1515 2.32444 1.43443 -1.2397 2.69329 -0.459958 
0.065766 -0.264662 0.0554847 0.0958645 -0.469688 -0.475187 4.4468 1.88745 -2.7502 
1.02566 6.5662 -2.72184 0.379844 0.00952691 -0.412211 -1.1366 0.33057 5.36086 
-3.95715 -9.40131 5.17508 3.30391 -12.3021 -11.3333 -8.64295 -8.16345 -10.7008 
-10.0348 0.557565 0.529449 -3.50371 -1.6196 -1.8874 -3.59731 3.42286 4.24303 
-2.79519 2.48463 2.16409 4.35599 2.17542 3.81234 2.62079 3.82517 3.57984 
-9.30511 3.54425 -2.27315 2.47402 -3.29834 4.35234 -0.674564 -1.14746 -0.839797 
-0.829205 2.89273 2.26774 0.148849 -0.0749874 0.0929154 1.33451 1.05895 1.79685 
0.414543 0.366247 -5.04487 -6.28575 -8.64296 -5.92874 0.887297 0.6541 0.60018 
0.361123 0.410865 0.486784 -1.08007 -1.79082 0.101754 -7.60063 4.75646 -2.01179 
3.12033 -1.04697 -0.679249 -5.34525 -2.41947 -2.76446 -0.118093 -0.0570449 -0.675438 
-0.41043 -1.70907 5.1107 0.769254 2.32454 3.78467 1.06521 3.49632 -5.01139 
-0.888428 -1.36138 -1.86502 -1.19407 -1.40181 -1.50461 -0.550122 2.4236 1.04582 
2.71673 -2.02086 -0.734948 -1.35945 -0.76814 -0.910612 -7.61797 -7.37997 -7.11097 
-2.13774 -2.51064 -6.2128 -5.41874 4.58104 1.34896 1.36418 -5.86377 0.709438 
-0.0488512 0.424866 -0.124964 -0.997221 -0.117116 -0.907715 -1.10134 3.08902 -1.89604 
-2.99613 -1.87617 -1.172 -1.41805 2.25046 -3.23037 -3.04701 -3.02483 2.42794 
-1.64942 -0.905789 8.80168 -5.33226 1.53554 4.54921 -1.5172 -0.613167 -0.556842 
-2.55799 4.39743 2.71522 3.37739 1.21376 -3.65139 -2.33658 -2.14535 1.02909 
0.739755 -0.13164 0.680995 1.7625 0.396422 0.941383 0.703074 -5.2416 5.18516 
4.04011 -10.8682 -5.88278 2.47425 -0.0435874 -3.61067 -6.16827 -1.92329 -1.63959 
-7.92601 1.41143 9.09056 -1.19764 4.38391 2.78802 1.7143 0.640246 0.840574 
0.875006 2.65888 4.66063 2.05272 -1.28985 -2.0243 -1.40969 -1.39003 0.0365141 
-0.501996 1.26289 7.51314 -9.63391 0.27074 -1.9463 -2.20208 -3.25991 -3.30574 
-0.750577 1.43754 5.95543 -0.731266 6.07981 1.35089 -0.781406 -4.28037 -0.513965 
-0.381398 -0.483307 -0.615109 0.413792 -0.988055 0.342444 -3.22888 -0.325728 -6.82732 
-10.4006 -5.14515 -5.04801 0.0202839 -5.68584 -4.13129 7.92667 -4.57285 -2.8131 
-2.34793 5.31184 -0.620348 -0.362506 1.28192 -0.503034 0.79221 0.293663 2.23629 
-4.64815 -3.84086 5.5117 -3.94564 5.85253 5.80643 -3.97764 -5.32404 -5.60492 
-4.99669 -6.34224 -5.35759 4.72286 4.584 2.99943 4.66524 3.47137 -0.458965 
3.96343 -6.43728 -7.80481 1.87162 1.37434 1.33594 0.62928 1.47734 -0.722331 
-1.04441 -1.36297 2.00621 -8.69835 -2.37398 -1.97662 5.02034 6.75585 -0.678768 
-1.16925 -1.05077 0.604317 0.505897 0.480209 0.580073 -0.796436 -1.3587 -0.455099 
-0.358952 -0.213574 -0.22476 8.09405 -2.85055 -0.424833 -0.0801064 0.536605 3.69833 
-4.41999 1.79491 -0.180224 -0.31357 -1.16667 -1.54338 -1.84606 0.388326 0.101793 
-0.0519479 -1.29439 3.59291 -5.30937 2.28577 -0.277978 -0.931393 -0.0641949 2.29929 
0.451065 -1.70528 3.40371 -1.18207 6.81665 -5.48403 4.49671 -8.54457 -1.41734 
-7.24338 -6.88838 -7.89213 -11.6528 -9.2088 -3.70027 -8.13649 -0.464826 0.987368 
-10.9812 -6.64609 4.78716 8.82876 2.64634 -7.75125 -0.299176 5.98582 -0.79161 
4.45186 -5.19057 2.00317 2.90401 2.11574 1.36779 1.9389 -1.69541 -1.06711 
-2.44276 -3.50128 -1.9553 -0.279564 -0.400943 -0.520388 0.924338 0.721651 0.713334 
0.735231 0.0461427 0.300893 0.463214 0.583612 -0.649852 -0.876865 -1.04599 -0.626647 
-0.89809 -0.756994 -1.09982 0.680967 3.64093 2.78378 6.51648 -1.62477 0.408573 
-6.40709 2.76752 -5.76609 -6.91 1.28554 1.73864 0.514415 1.54145 0.147499 
0.697728 -2.53714 -3.86619 -0.0149843 -0.727119 -0.875011 -0.92294 -0.585694 -0.627092 
-0.900776 2.32594 5.72945 3.09607 -2.56246 -1.37391 -1.26502 -1.43863 -1.56459 
-0.771096 1.19169 1.09482 -5.55568 -1.36255 -0.912678 -0.758303 -0.394795 1.35182 
-1.327 -0.0265176 -8.89455 5.79653 2.79135 1.81251 1.96134 -1.41682 7.88043 
3.65985 3.44764 7.07952 8.05543 0.469036 -0.276642 2.52707 2.16232 4.13968 
5.14677 5.95228 -0.691948 0.66645 -0.973967 1.32731 0.418521 0.760985 0.968495 
0.802273 1.62613 0.527663 2.81791 0.799508 -1.51693 -2.35364 -1.37262 -0.327997 
-2.8828 -2.91697 -3.65968 -1.20407 -1.48196 -2.19838 -1.58185 -1.50861 -2.1032 
-1.07377 -11.3174 -5.99438 -0.327057 1.74146 3.10319 1.53928 1.78202 3.57129 
0.886232 2.47581 -1.16101 1.13608 1.81372 -6.13849 -1.69838 -3.90097 5.73203 
7.65306 -3.91046 -1.40482 5.71872 -2.96578 -1.27998 -1.53439 -0.740936 8.02715 
-3.80952 -3.4871 -3.55539 -3.49103 -3.53006 -0.817101 -0.26375 -0.794848 -0.937467 
-0.87754 -4.91523 -2.93269 3.67044 4.45899 5.51607 0.179522 0.443077 -2.00749 
-0.908942 3.45409 0.313084 4.30806 10.1518 8.91891 1.23711 1.77274 -1.56762 
-0.921475 1.79994 -1.30664 -1.43452 1.1525 3.43807 2.07278 3.08094 1.52649 
1.26311 1.55471 1.84215 -1.11033 0.0167917 -1.80453 -0.757046 -2.46724 0.532702 
1.30435 3.1608 7.5215 0.0669526 0.713114 4.24231 0.389946 -0.27726 -3.9114 
-4.40896 7.74721 7.68417 -4.95557 -12.0784 -10.5656 -9.9122 -2.76596 -10.1541 
-4.46732 3.3748 3.9562 2.75716 8.23122 3.9634 5.38471 5.44562 2.01351 
2.11251 1.67962 2.90176 -2.80231 5.47394 -0.694209 3.38951 2.93335 2.34306 
3.12443 -0.959206 -0.639523 1.78114 2.28089 -4.44509 -5.63609 -4.77945 7.87675 
6.55795 -4.10543 -2.10024 -1.21642 -1.427 -2.28136 -9.85457 -8.8939 -10.1382 
-9.63864 -8.86149 3.64162 1.95159 6.58871 4.98704 2.02513 -2.84356 -3.97352 
-2.56622 -3.03026 -2.45783 -3.30891 -2.99246 -4.66507 4.97562 -1.42222 4.21636 
2.94928 2.25989 -3.38926 -0.605695 -0.476638 0.81739 3.55211 4.46902 5.87743 
1.84606 0.347278 -1.65619 -0.322109 -2.17994 -0.591821 -0.648127 -1.20828 -1.20122 
3.38445 -1.43335 -6.14494 5.04057 3.53209 4.5531 -1.5366 -1.65718 -1.05215 
-1.34423 -1.66631 -2.10937 -1.09627 -1.38341 -0.776768 -0.749428 -0.467358 1.81315 
1.38807 0.885923 0.6299 0.574187 -1.62711 -0.204921 5.70279 5.52586 -1.26175 
0.0830671 0.799332 -0.782068 -3.69444 0.41072 0.309422 0.257024 -0.478854 -0.323401 
-0.218906 1.68946 0.920154 1.35877 -1.04501 -0.883563 1.06058 -0.861429 4.84685 
0.875787 1.7412 0.936815 0.355196 0.684247 9.74319 -1.42185 3.14888 9.23205 
-0.581924 10.7603 -2.9879 -3.81956 -2.53682 0.468231 -1.40384 -1.35049 -1.08537 
0.0974864 -1.91923 -1.81416 -2.80491 2.68297 0.48294 0.00236502 0.333984 0.406519 
0.913674 0.863763 1.13913 1.00979 3.28585 3.33668 5.57229 2.44364 4.61247 
1.88432 3.90523 6.81578 8.70982 5.41361 8.66324 -2.40543 -1.49079 -1.58572 
0.371027 -2.39209 -2.14406 -0.914696 -1.61553 -0.171796 2.0229 0.40319 0.751523 
0.454633 3.15535 0.0424912 -0.530998 -1.36111 0.34876 -1.3875 -1.45644 -1.16379 
-2.68725 -1.16917 -6.46584 -6.22716 -9.14306 -7.52626 -9.44081 0.801121 1.14252 
0.886268 2.16625 -3.36439 4.97701 -1.04171 1.33978 0.303769 0.126892 1.21441 
0.211974 0.399496 2.97176 2.94929 2.11272 2.69232 -1.43178 4.50058 -5.34338 
-0.491355 -2.59861 -1.66562 7.57251 6.87183 4.19107 5.34077 0.333878 -2.675 
-5.38346 1.47944 -2.75039 1.48975 -0.28315 2.01163 1.22158 -0.0769904 -2.87354 
-7.34401 1.83905 0.807432 1.29396 0.577654 0.582252 1.89263 -5.72813 5.1125 
-9.27189 -0.920402 -0.612621 -1.1832 -0.541926 -0.734875 -10.789 -9.15421 -10.2174 
6.18866 -7.07228 1.098 6.26787 -6.40692 4.66581 3.03988 1.94091 5.14456 
3.0629 3.68846 2.09087 3.06006 1.83369 2.71191 2.35559 -0.875501 -0.7414 
-8.15523 -7.26129 -6.24663 -7.57646 -9.98294 -9.17705 1.37712 0.629626 0.395228 
-0.670621 -0.945296 -0.254067 -0.167584 -0.114077 -0.667067 -0.193781 0.646866 1.87244 
0.981177 -0.69466 4.23779 7.11315 -3.22025 1.89611 1.78048 1.06505 10.5992 
3.85686 2.28966 2.019 3.70881 2.22124 0.564708 0.281386 -3.79984 0.261091 
-1.04763 -1.76356 3.76539 6.30789 5.78834 7.54341 5.87576 0.334129 1.41821 
-0.091768 0.0888513 3.57071 -4.61864 -5.02548 -3.95343 0.98698 1.28912 0.891285 
1.16932 1.15864 5.58995 1.98021 4.7579 -0.950992 -10.2796 4.50905 1.80225 
-3.10585 -3.1392 -3.72293 -3.47022 -1.86118 1.4627 1.95424 1.03553 1.72586 
2.08384 4.74919 2.47972 0.864987 -4.83003 -1.90371 2.20582 -3.01331 6.03429 
5.28445 2.82004 3.69278 3.4654 -3.61398 -1.32967 -1.86833 -3.6589 -1.71412 
-5.00906 3.18625 3.33104 -6.71477 5.60681 6.37458 -4.21679 -3.7954 6.96786 
5.06258 -1.85735 6.81363 6.93522 6.72367 -0.582706 -0.727541 -0.608579 -0.496434 
-0.608944 -0.642262 1.84253 1.6694 1.60603 0.966225 -0.316559 -0.485304 -1.35323 
-2.79381 2.49429 7.85044 -1.50358 -0.583198 -1.66663 -1.74406 -6.43345 -7.0477 
-6.71322 -8.8126 -6.32637 -2.86426 1.1225 -2.37132 0.348853 9.12327 -6.37154 
4.68121 3.62609 2.41583 2.5598 -1.74579 7.26195 -8.02031 4.72443 -0.31043 
0.415908 0.131384 0.777746 -0.769222 -0.227873 -1.20903 2.06839 0.827944 -1.15451 
5.27022 5.1495 1.84779 -6.4624 10.8888 6.46239 -11.5723 4.64885 -4.15432 
1.62587 2.12441 2.2457 2.98021 -1.14885 1.30409 0.966859 1.26561 -7.82161 
-11.8599 0.917705 1.04133 0.863177 -0.147089 -0.51748 3.2145 4.02686 4.48393 
5.77244 6.15009 5.7846 -2.42773 1.89745 0.397494 0.0219871 -8.86542 3.2182 
-6.88805 -8.05946 0.42511 -1.93725 -2.00284 -1.89459 5.26351 2.73929 -4.3432 
-4.8339 0.034622 4.74479 3.86352 3.0773 -1.29764 -1.29786 -1.54979 -3.34564 
4.95427 2.73538 -4.43077 -3.0843 -3.64979 -3.18089 0.82937 2.88429 2.66973 
4.87163 2.77798 3.21823 0.694718 5.13362 1.43284 -3.43089 0.324832 5.37796 
5.47119 2.83946 6.22182 1.45398 0.395167 1.45024 -2.97106 -3.51347 -3.34948 
4.04364 8.91164 -1.81702 -1.50217 -1.4511 0.988415 -1.27057 2.56535 -8.36825 
-5.41026 6.71381 -11.4483 -5.13554 1.11643 0.66389 -7.90399 3.56178 -6.68219 
0.926915 2.49567 -1.99091 -2.05249 -1.62233 -5.48467 -3.39515 -2.95701 -4.67819 
5.13142 4.73267 2.72683 1.82813 3.79385 5.25813 4.99345 7.17117 0.704474 
-3.98221 -3.74176 -2.1386 -1.48592 -0.775685 -1.44396 -0.284159 -1.35567 1.71748 
1.05074 -1.1686 2.66188 2.26977 4.95402 6.43737 5.86451 -0.894814 -2.21625 
-1.35809 0.707711 6.90998 3.70377 -1.19471 -8.09781 5.17304 -8.28884 -10.1155 
4.46876 3.49664 3.41675 0.395064 -0.240869 0.683386 0.209897 -0.293769 0.570085 
0.0521134 -3.64287 -5.35004 -1.92752 -6.66103 -2.79743 -5.6826 -6.06137 -6.16211 
-4.83856 -5.84703 0.33625 0.68977 0.0886985 0.524756 0.761967 0.662085 0.59047 
-1.60531 -2.02871 -0.737858 -0.444909 -0.557478 -0.706552 0.217479 0.466866 2.12911 
1.6229 -1.22721 -1.22987 1.13344 0.196368 -1.01296 -0.500874 6.05309 2.98528 
-3.46187 -4.10218 1.74159 8.84159 5.29982 9.14692 -1.93853 -8.3172 -1.71463 
-1.48522 -2.00298 5.49852 5.00863 3.76339 3.28149 3.04763 2.32055 -1.6098 
-0.565381 -5.62432 0.329373 3.92013 4.27086 5.43878 -6.55412 -7.37272 -6.40255 
-2.84559 -4.40249 -3.86867 -2.84023 -3.61465 -5.98313 -3.97959 -3.03308 -4.04552 
0.765541 2.43183 -3.5057 0.922646 1.15089 0.246449 0.279916 3.42094 1.21152 
-1.28188 -1.17923 -0.757913 2.07359 6.00098 -3.4749 6.58333 -3.33962 -4.24357 
-4.76399 -4.43211 -0.646469 -6.49328 -4.09333 1.2287 6.97777 5.90095 3.56518 
5.22037 -8.52774 3.80577 3.29967 5.33654 4.00553 6.14779 4.49098 -0.507847 
-0.489143 -0.510657 -0.586836 -0.625735 1.58212 2.11594 -5.08818 2.35633 -5.37853 
2.65571 6.6456 7.92487 9.38865 8.89432 3.51757 10.9202 0.594567 -0.408089 
-0.4517 -0.0531397 -0.212868 6.66925 1.78898 -0.296653 -2.44287 0.591059 1.11789 
1.0861 1.34333 1.4669 -2.5548 -2.7628 -2.15155 -2.74969 2.32684 1.6818 
1.33271 1.40962 2.4694 -1.65905 -1.86791 -1.56034 -0.956448 7.35502 -1.90948 
-1.52509 3.70967 -2.24911 -2.09141 -2.23151 -2.26881 -2.13519 0.321498 1.12919 
0.973385 1.41307 1.27555 -2.70669 4.50333 -3.34477 -6.35158 1.92032 6.96776 
8.55212 2.80765 -3.95407 8.16383 -0.812794 -3.32369 -2.18605 -3.65213 -3.60627 
-2.98637 -0.449368 -1.4342 -3.16968 -3.37171 -4.02539 -2.48088 0.0863995 0.732886 
0.162939 0.10134 5.35754 -3.91615 11.0688 -0.116212 0.0444859 0.0333404 7.91728 
5.20325 7.47887 3.33185 6.85997 2.69434 3.34507 8.05133 -5.504 -9.84511 
-6.69837 -0.655465 -6.36329 -0.113997 -8.69502 -5.78453 -1.53795 0.0398691 1.49272 
2.72846 -2.45451 -1.95641 -2.24988 -2.69903 -2.15672 -2.27463 0.0168783 0.671948 
0.338755 0.596808 1.11096 1.09072 1.1354 -4.25521 1.01577 0.286229 2.40861 
2.52772 2.05225 1.92254 -1.37856 -0.936375 -1.01668 -5.46964 0.860694 1.87844 
0.935386 0.821031 1.05738 0.576211 2.22271 1.62539 2.37123 -1.77723 1.21298 
1.15448 4.02429 3.38182 -1.91024 -1.39454 2.7932 0.697923 2.44334 2.96004 
-0.263039 -0.592758 -0.590931 -0.369706 -0.341808 -0.0246448 -8.73981 1.45642 1.23349 
0.296253 1.25344 1.06716 0.601506 0.69925 0.756588 0.748375 0.623133 10.9184 
-1.08002 -3.76493 0.525587 0.668832 0.537887 1.59512 4.20855 -5.76189 -0.357133 
4.27367 -6.56542 0.269277 1.70291 1.22587 0.259892 1.918 1.09457 1.01715 
-1.96638 2.14048 -1.22429 -2.9551 -2.5136 -2.63751 -2.85764 -1.87842 -4.37185 
-1.8562 -3.36774 -1.26257 -0.663419 7.19221 4.23068 0.297207 -0.632096 -1.11137 
-0.677614 -0.593568 -1.02972 -7.96328 7.1354 5.93098 6.16406 6.61867 -4.87667 
-0.253465 -0.195726 -1.36513 1.18846 1.31081 0.889325 -10.0287 -4.45383 -5.84263 
-3.57532 -1.69354 -2.42754 -4.06986 0.288836 0.0311082 -0.274256 -0.163096 4.3241 
-1.11038 -0.251416 -0.0322285 1.51622 2.6985 2.40268 2.02968 -0.818382 -0.947411 
4.76899 6.26152 -0.777989 -5.82781 4.1882 3.09518 0.979479 5.72624 -3.35776 
-3.27761 7.00077 -0.915538 -0.552189 -0.543526 -0.492808 -0.555996 2.39733 2.60054 
2.03029 1.90501 2.7295 2.33639 0.408595 -0.9572 -1.74221 -2.79771 -2.27775 
-1.59956 -1.45775 -0.772521 -0.111056 -1.08463 -0.880514 1.76194 1.4186 1.47335 
1.6398 0.947928 1.74288 -2.35636 2.49425 2.28188 3.48044 0.954293 2.0589 
1.99638 5.4256 -3.62327 -2.33988 -1.3357 -0.551959 3.5763 0.794901 -1.69718 
-0.269086 1.01724 -1.398 -0.932986 -0.943834 -1.07658 -1.36238 -1.54505 -1.71728 
-3.52047 -3.06516 -2.7861 -1.40574 -2.51408 8.444 -2.64008 4.98869 3.58835 
4.34205 3.77258 -1.71585 0.305614 -1.15719 -0.97436 -1.63171 6.24868 8.84513 
5.84034 7.00856 8.22482 -4.3518 2.76699 1.15111 -7.43453 -3.74289 -4.13443 
8.91754 -4.4848 -8.57474 -8.45988 4.51896 -9.08711 0.788776 0.998385 0.9042 
-1.87967 1.49453 1.93419 1.97495 0.655469 0.385204 -1.69129 -1.12399 -1.32719 
-0.319418 -0.504442 2.23537 0.936919 0.92223 -1.86062 4.80124 -0.272825 -6.29975 
-5.68456 -5.80357 -0.56313 -1.2871 -1.72359 -6.0719 -1.09044 -6.1738 7.40458 
-5.04266 -6.12689 9.56743 -2.41073 3.94592 5.72637 -0.99664 -1.6795 -4.2484 
0.503538 -1.64315 0.173676 -1.90939 2.5861 3.68092 -1.09653 -1.21971 -1.51441 
2.20765 3.07549 -0.905557 -3.5954 -2.91181 -2.05365 -2.59508 -4.14505 -6.30329 
1.10206 1.80352 1.21465 1.56335 0.95488 -1.22357 -0.873446 -1.47655 -1.42699 
-0.888454 -1.75113 -1.38743 -1.40747 -0.934309 -1.71608 -0.72689 -0.57761 -1.20342 
-1.32862 -0.716001 -0.478291 -0.40947 0.0436017 -5.67701 -0.408972 1.34712 3.45193 
2.60506 -3.78912 0.414664 3.94854 -11.48 6.00635 1.81455 0.20124 0.758969 
0.848438 -0.652535 -9.91301 -10.1251 -10.605 0.982032 6.82043 2.99119 5.76359 
-2.24913 0.524476 1.32966 3.67596 6.16931 -3.22508 -4.5655 1.64589 -2.50754 
1.53779 2.55019 6.34133 -1.68887 0.739681 -2.47442 -3.22399 5.36624 1.4415 
-0.12726 -6.20204 2.29416 2.60415 2.52125 2.0783 1.67913 4.93019 4.71218 
5.72899 5.80727 6.10726 10.9846 9.61133 10.995 11.3461 11.3794 12.1236 
-0.934212 -0.902144 -9.98252 -10.993 0.712264 6.24248 6.20349 7.209 -2.97451 
-5.34809 5.45684 -2.3661 3.71728 -0.27513 0.378259 5.13667 4.09868 2.96193 
5.37751 -0.500342 -1.39081 -1.18444 -0.85488 -1.73269 -0.716404 6.6401 -1.12423 
6.73373 -3.03757 4.71794 9.16144 7.869 9.21785 9.04716 5.76795 -1.84635 
9.15221 2.09643 1.18198 2.10555 2.17752 -1.39247 -0.900611 -0.275289 0.467016 
4.23939 2.66278 4.58869 0.162561 -3.43582 -0.0301766 0.971061 3.82166 -2.7123 
4.29468 4.06722 3.12333 0.706783 0.920109 1.13755 1.20907 1.91081 -2.58847 
-1.6941 6.26074 -2.82642 -0.928666 0.99754 1.22512 5.14567 5.01728 3.53241 
5.50557 -0.112653 -3.16253 -4.0886 3.71936 -2.53714 -2.09462 -0.93216 -2.62385 
-2.55074 -0.367431 -2.97916 -2.79922 -2.41954 -2.49517 6.17064 -1.26544 -4.46865 
2.65753 1.56158 7.09958 -11.6031 6.01584 -8.77748 5.5355 1.08942 1.22782 
1.38934 1.01882 2.38189 -2.7573 -3.30408 0.595578 1.78398 0.150958 8.40277 
1.66914 4.32887 4.18437 3.9828 3.60325 6.97347 7.98279 6.12644 -2.30255 
4.18304 -4.31874 3.35506 3.46348 3.06635 3.09304 3.60252 -6.75421 -5.26333 
-5.75676 -5.14124 -6.28586 -1.369 -2.35989 -2.16286 -6.06874 0.798606 -4.44091 
-4.45226 -4.29764 0.0864756 1.6825 10.0363 -3.05399 8.21308 5.49093 2.29526 
-1.94279 1.33662 -1.70328 -2.32543 -0.65692 -1.24239 2.05469 1.25442 0.934766 
1.58124 1.23256 1.67651 -0.0725863 1.25196 1.51191 -1.44507 -1.14474 1.24394 
-0.0436717 0.80158 1.40239 0.837069 2.20874 4.29355 4.55327 2.34815 -3.56798 
1.4871 8.06761 3.69284 7.48025 -2.78136 0.328073 0.743876 0.442243 8.4626 
6.23749 1.86482 2.18845 1.72385 2.50352 -7.88081 5.05631 -8.35238 -1.16861 
-1.55606 0.188807 -0.790718 0.503696 -0.885363 -2.52729 -2.75894 -2.69203 -2.81716 
-1.88907 -2.38674 -1.98983 -0.18868 -0.616183 -0.885483 -0.668045 4.13665 8.02126 
6.45248 -3.54069 3.2027 7.23522 7.25723 6.33815 4.48101 2.17137 1.63503 
-4.7056 -7.46371 -7.26994 1.42784 -0.308738 0.335914 -2.59002 2.60644 -7.18487 
4.61384 4.52602 -0.882141 1.18231 1.65873 1.06507 1.7806 -4.08605 -5.25921 
-6.24621 -5.59597 -1.159 -0.142653 -0.274231 -1.48948 -3.98757 -7.57195 3.92105 
-9.3341 -5.62325 -5.97697 -6.37912 5.0569 4.27731 -4.11318 -5.28109 -4.74883 
-1.33753 -3.88302 -2.09437 -1.60003 -0.535607 -0.334437 -0.673905 0.964974 1.2238 
3.74519 2.72652 -0.259681 -0.623697 -6.12814 4.92597 4.04323 5.30375 0.77363 
-1.97321 -2.1077 -2.16583 -1.83347 -4.09397 -1.26826 10.374 -0.582871 -5.77699 
2.79883 -1.83192 4.1918 5.67545 -0.187963 2.14571 -5.74135 7.45136 0.993137 
5.99897 1.91675 1.53777 1.45344 1.38659 -5.24718 5.37154 -5.01996 -2.53578 
7.96807 2.24282 0.646817 1.13357 -2.373 1.04251 0.698698 -1.37995 -1.28629 
1.29589 -8.13738 7.169 -4.4277 0.205733 0.367421 11.015 5.78779 11.5882 
0.222123 -1.23571 1.64443 3.80743 -3.11605 -4.24425 -2.89063 -2.4023 -0.109919 
-0.816918 -2.44859 -3.02229 2.58937 0.330397 -1.03022 -0.563557 -1.14611 -1.02171 
-0.998965 -1.0109 -2.09319 2.94972 2.25365 2.37292 7.94278 5.14268 -3.3595 
4.97602 -7.2287 3.83688 2.43784 3.60698 2.66476 3.45751 0.264389 9.08136 
-3.5845 -1.66021 -1.71362 -1.58242 -1.47958 -3.56697 -3.19114 -1.21939 1.38534 
1.16685 -1.82443 -2.33666 -4.37232 -3.35574 -1.84433 -1.46908 -1.8718 -0.723822 
-1.79517 1.97848 2.13949 1.60758 1.60827 -2.75516 0.894455 -1.29091 2.75472 
2.18401 -1.30548 -3.43246 -6.27844 -4.71011 -1.21062 -1.10272 -1.10838 -1.75396 
-1.6441 0.0617394 -3.54525 -4.87005 5.04416 -4.15684 -4.83905 -3.33621 -2.12547 
-4.21722 -5.21617 -4.34102 1.28827 1.29273 1.4299 1.39731 1.16186 5.00899 
9.73619 -5.3857 -0.226771 7.72939 -2.22031 6.30632 -2.4063 6.81288 -4.47146 
-6.53447 -6.28129 2.12051 3.0629 1.24128 1.2204 1.15195 1.14644 1.70644 
1.58229 1.41826 1.3782 1.6248 1.23545 0.808532 1.27079 1.76471 2.1002 
2.02267 2.43499 1.34318 -1.76607 -1.12422 -2.64773 -2.33355 -2.93754 -3.24969 
-3.10216 -2.49328 -10.3976 1.16465 -0.0310378 1.31153 -1.08231 -3.25575 -2.15662 
7.21765 0.526959 -2.38611 1.93212 1.27433 -2.14901 1.40697 0.693693 0.0530892 
-1.16666 0.128637 1.09733 0.398106 0.2715 -0.567198 0.381583 1.27746 1.44391 
2.17411 0.14891 0.683824 1.05272 -1.72763 -1.00705 5.57949 7.21949 3.93537 
1.98033 6.15907 8.25928 8.90889 5.73985 5.83582 5.08417 0.27661 9.10348 
8.85276 9.00746 8.58425 5.30644 5.86185 7.53508 5.78869 5.45093 7.32687 
6.90197 8.50581 0.423934 -2.37635 0.498314 0.354075 0.305527 0.254909 0.0126982 
0.136908 0.582282 0.462378 0.112426 1.51679 1.4607 1.71646 0.571285 0.918712 
0.946168 0.970521 0.405487 1.48187 1.45521 1.08522 0.82038 -0.891629 -1.34826 
-1.00682 -0.675405 0.803428 -0.60526 -1.32795 -0.707051 -0.894972 -1.19672 -1.20496 
-0.66948 -0.25976 -0.330415 -0.788417 -0.183785 3.64301 5.34713 2.87647 1.37054 
-2.0773 -2.34051 3.61974 2.23011 -8.82077 -7.54858 -4.69615 -3.80529 -5.67571 
1.45587 0.243521 1.2902 1.33149 1.11284 1.10315 1.06173 1.33594 1.29497 
2.16647 2.84838 -8.18041 -0.518984 -8.08269 -0.933037 -3.14031 -1.32011 -1.26899 
-1.24783 -0.439756 1.67516 -0.473464 -0.167542 -0.108326 -0.329754 -0.21814 -1.06601 
1.30118 2.39613 1.90523 1.9808 1.64581 1.76645 2.17532 -2.98962 2.11144 
5.35931 4.0542 1.6708 6.20334 5.30207 4.9877 -9.69376 -4.0335 0.712933 
0.629455 -0.0623537 0.428048 0.698037 0.610742 0.515043 -0.125706 -0.256565 6.5887 
-3.27095 6.51198 -10.3139 -11.0356 -6.91632 -3.00962 -5.60118 0.852594 1.15189 
0.853304 1.00051 1.41806 0.751772 0.999506 0.635523 0.910665 0.571567 -9.94443 
0.0387567 -5.67442 -7.02773 3.49851 7.74748 3.32752 0.511056 3.66871 -5.04837 
3.49113 3.18038 3.71102 1.02541 4.27598 -8.76682 2.14725 -9.02385 2.71613 
4.28297 4.10464 4.16113 4.62252 3.40207 5.20738 -8.21704 -0.898462 -0.178672 
-1.99406 -2.37228 -2.441 -3.0098 -2.0534 0.743209 0.880927 0.870145 -0.144941 
-0.0832505 0.57368 4.36157 -5.89522 4.639 9.70428 10.3956 -6.18005 -0.184704 
-2.28022 0.0730029 -1.94997 -0.425566 -0.383286 -0.132197 -0.223814 -0.0130233 -0.39823 
0.112221 -0.6188 -0.0225826 -0.191856 -0.660582 -1.76599 6.94312 -0.468971 3.598 
-3.74307 0.447241 -1.29173 -1.34523 -1.31501 -1.53551 -1.58052 -1.4528 -1.35458 
-0.973403 -1.16077 -1.53264 3.40098 -1.74057 -0.0854211 -3.43815 -1.0976 -3.76078 
-3.98915 -4.10101 -2.9142 -3.31471 -3.85428 2.82024 5.95132 4.09268 4.82961 
-2.1033 -3.63587 7.90848 -3.09285 0.205423 5.40174 -1.22359 -1.89296 -1.52802 
-0.751259 -2.05098 0.588503 -0.815533 -0.680038 -0.322868 0.693466 0.190279 -0.300638 
-0.138942 -0.412155 -0.373008 5.37399 7.25836 4.12538 -2.03466 7.11254 -5.95251 
-6.27748 -1.90086 -0.127778 3.85482 3.22828 4.06963 2.8451 2.36447 9.50648 
9.66743 8.93073 11.128 10.3584 -7.65618 -7.87419 -8.96646 -7.91538 -10.5325 
-9.89094 1.92049 -7.82079 2.30899 1.38181 1.77729 0.77462 1.25186 -0.524931 
-0.987216 -0.627149 -0.650253 -0.902937 -0.526652 -0.636267 -0.818682 -0.991281 0.719838 
1.80495 1.69915 1.58499 3.16923 0.807049 1.49675 1.33431 -2.27834 -2.98262 
2.07727 1.27888 1.17594 -1.72959 1.42248 1.73056 0.025086 -5.02697 -6.22717 
-4.22804 -3.80251 -5.12148 -3.63543 1.5416 -1.60845 -3.12099 3.37014 -0.208841 
-0.0786349 3.41542 6.70001 2.13798 1.28197 1.78657 1.17665 1.77764 1.5596 
4.14956 3.7687 5.02102 -1.25842 -1.09867 -4.71892 -5.84137 7.39615 8.56875 
-6.86359 -5.88454 -6.10138 -5.18435 -4.05204 0.530462 0.818747 0.182719 1.08522 
0.268693 0.472794 0.394159 0.593965 -1.39066 0.185568 -0.229159 0.785181 -2.37404 
-1.82314 -1.12887 -3.53144 -3.02218 -2.74395 -1.78197 -4.3107 -0.120254 -0.371551 
0.238895 1.44654 0.0991136 -0.00261268 -2.29718 -1.87438 -2.17794 -2.99965 -3.00468 
-2.36754 -2.39339 -1.8181 -1.94421 -2.47107 -2.7407 -2.14603 2.4426 2.9352 
0.966456 1.79847 -3.75247 1.46926 1.79508 1.63678 1.28286 2.13045 0.718557 
-0.102136 2.51616 1.69981 -0.569369 -0.570164 -0.584773 -0.583202 -0.513887 -0.44039 
-0.888928 -0.356372 -0.489105 -0.576021 -0.501314 -4.76829 -3.90547 -4.59729 -3.25139 
-3.77296 -0.0746896 -0.372514 -0.169035 -2.61352 2.73669 7.09984 -0.518485 2.68899 
3.85864 3.11452 4.22766 5.59411 -1.90258 -0.0615908 -1.60916 -1.2813 -1.10077 
-2.33458 -3.54726 -2.57364 -4.23332 -2.04195 -0.674159 -0.914979 -0.871445 -1.6126 
-0.341022 -1.22197 -0.453228 -0.173202 -0.32467 -0.406805 -0.217701 0.292167 0.353077 
-2.10467 -1.75303 -1.36642 -1.49321 -2.25436 -1.94361 -1.66462 -2.05035 -1.79826 
-0.953565 -4.99765 -5.71351 -3.66924 -1.47976 -4.45656 -4.02902 -4.68851 -2.29259 
-3.75018 3.26149 1.20253 1.83638 -0.98711 -1.38336 0.362789 0.601226 0.390291 
0.731822 0.862372 0.768158 0.766545 1.19051 0.911748 1.18088 -0.812528 8.95354 
5.52433 5.00933 6.13372 4.21215 8.46536 3.85374 -9.72747 -8.71654 -2.29359 
-2.07614 -1.9555 -2.33865 -2.02386 -2.38851 -2.62845 -2.38057 1.61855 2.42843 
1.93123 1.4059 1.75505 -3.96963 4.68491 3.48824 5.49039 2.54661 2.48402 
1.67077 1.21689 -0.235926 3.80183 6.28652 6.2917 0.454816 1.39525 3.46103 
1.96583 -1.61492 0.93444 -0.161496 -2.77398 -1.41492 -0.229941 -0.284309 0.654972 
-1.97923 0.609106 -5.99492 -5.60497 1.21674 3.95569 5.29038 5.14091 -1.20586 
-1.0986 -1.21117 1.55768 1.10606 1.34772 1.38389 1.52723 1.60044 1.11984 
1.49078 3.51479 -2.1941 -1.23741 -0.984797 -1.70246 -1.76689 -1.61433 0.602899 
0.249876 0.672197 0.778703 0.418289 0.973483 -5.64354 -5.61254 0.602627 -0.107208 
-7.67238 -8.17564 4.57395 6.14323 3.12649 2.42606 1.26788 3.09637 -4.75108 
-0.141051 -2.19304 -1.32785 -0.64679 -0.809161 -0.470563 -2.23627 0.662289 -1.23685 
-0.666952 -1.36568 -1.68743 -1.43063 -1.62478 0.179726 0.198877 -0.647331 -0.824431 
-0.937066 -0.703784 -0.459015 -0.344949 -0.868636 1.94517 -1.05883 -0.0615456 1.41815 
-1.95942 -0.411619 -0.803161 -1.19484 -1.08949 -1.43533 -1.76712 -0.334833 -1.15738 
-1.01155 -1.96345 -1.35115 -2.6477 -2.87883 -2.79041 -2.5264 0.405719 1.34725 
0.879417 1.22816 0.906872 0.883659 -2.00876 -1.84297 -1.64288 -1.75105 -1.47994 
-1.49597 -1.45423 -2.19007 -0.756626 -1.18284 0.373652 0.322072 -0.720045 -1.02435 
0.639288 0.0586107 -0.250099 0.645256 -0.541116 5.25026 -0.138411 -0.297311 -0.275936 
-4.23337 2.91676 2.54805 -3.16983 6.54472 8.73719 0.132757 0.049136 1.07719 
-0.216374 -0.324175 1.03207 -1.39178 1.22644 0.92021 4.42538 6.54587 5.48948 
6.72673 7.04845 1.41766 1.8441 2.20074 1.59825 1.96314 1.46616 2.83722 
2.04345 1.63068 2.28873 0.894535 1.25751 -7.79677 -3.2372 -1.13629 -0.724637 
-0.05697 0.0527676 -7.81867 -7.10368 3.06773 4.89413 7.33844 1.25293 -3.99838 
-5.55361 -3.132 -2.09497 -2.43356 -1.77276 -1.46919 -1.55656 -1.31 -1.28939 
-1.66074 -1.06944 -1.57797 -1.24477 -1.11701 -1.16467 -1.06318 -3.27585 -0.832583 
-1.27138 -1.45574 -1.25852 -0.43825 -1.26831 -3.94084 2.54258 -0.152631 4.76286 
-9.70864 -7.44997 4.38281 2.74674 -7.69106 -7.38223 -0.102346 1.43105 -0.171326 
1.08444 1.29036 1.34309 -1.12845 -3.00169 -2.95053 -2.71732 -3.20177 -2.38497 
-3.22567 -0.770047 -2.45551 -2.69948 -3.66322 -1.11168 -1.48678 0.340093 0.0815512 
0.109148 0.44326 0.545586 0.644392 7.37123 6.17595 4.682 5.50827 4.63761 
3.82843 4.74759 4.64918 4.44383 -1.2915 0.778157 -0.284563 2.14877 4.1299 
0.983027 -0.929944 -5.58967 -1.31562 -4.65147 0.164654 -0.200203 -3.70614 0.337433 
1.49234 1.61558 1.67298 1.52461 1.54583 -0.956096 -0.924317 -0.987081 -0.95133 
-0.996237 -0.982951 -1.02276 -0.996565 -0.988143 -0.984276 -6.70122 -9.54362 -4.58373 
-1.31388 -1.05398 -1.19215 -0.932753 -1.10614 -1.12147 -1.3169 -1.40024 -1.52887 
-0.547549 -1.21044 -1.35657 -1.515 -0.657963 2.13922 -3.4664 0.811745 -2.21547 
3.8972 3.57997 1.22754 3.42873 -0.210847 1.39737 1.56149 1.39405 1.49412 
1.75037 2.15256 0.996793 1.31279 3.40841 4.89886 -2.98181 -7.19646 -1.41004 
-0.763709 -1.07195 -1.10027 -8.25801 -9.52929 -2.73237 -5.73065 -1.43568 -1.66825 
-1.32345 2.4909 -6.14838 -4.09889 -2.15889 -4.3164 -3.2329 -3.54624 -2.42901 
2.02088 -1.21422 -0.745823 -0.702542 -0.796257 -7.7631 -4.24889 -6.01494 -8.17027 
-3.42357 -0.954702 -8.98147 -8.83727 -9.66018 -7.32712 -4.49506 -4.35514 -1.42312 
-2.51132 -0.919952 0.404842 -1.08713 -1.18522 -2.13126 -5.84501 -6.17296 -4.11427 
-4.1135 0.633872 0.568973 0.55707 1.41715 0.467595 1.29413 0.656949 1.1594 
1.30292 -6.8646 -6.15329 -5.38058 -4.15225 -5.44329 -4.93448 -4.89445 -3.21974 
-5.44646 2.05794 -7.21404 -0.631063 0.187174 0.545245 -0.135346 -0.188969 -0.587672 
0.0198048 0.281915 0.425697 0.492842 0.570972 0.55804 -0.559047 -1.27169 -1.99415 
-1.49288 -0.82145 1.10863 0.464427 -0.0880902 -0.535136 -0.517235 -0.77864 -0.891432 
5.96404 6.58167 5.84537 5.89285 -0.134564 -0.697815 0.000377452 0.345106 0.382912 
1.14327 -0.625818 -0.952178 -0.0477145 0.470299 0.539452 1.02612 1.61476 1.845 
1.828 2.59316 1.53432 0.87278 3.36447 2.16012 1.63692 1.3293 1.69269 
0.224748 0.772489 -0.364218 -0.553719 -0.55041 -0.828529 0.47476 0.304081 0.28586 
0.228029 -0.166616 -3.40517 -2.09536 -1.70594 -1.92915 5.23262 0.973104 0.561941 
1.33828 1.32949 1.76599 1.34051 1.09447 2.69909 1.72116 0.987456 1.135 
0.49633 1.16785 1.61174 1.82967 1.7056 1.37041 1.74687 1.67514 1.58717 
-2.87696 -3.16583 -1.56106 -1.09709 -1.20671 -1.23036 4.80905 3.79971 3.34293 
3.17848 3.33288 2.87982 1.48964 0.681187 1.21531 1.04356 1.74449 1.74351 
1.55187 1.8706 1.52192 0.0720041 1.77203 1.02193 1.59083 0.811244 1.22824 
1.14717 0.957391 1.58982 1.04131 0.754667 0.368485 0.763351 1.60428 1.69027 
1.95753 1.65612 1.88669 1.39747 1.11519 -1.07364 -1.12041 -1.03581 -0.763873 
-1.37068 -0.231982 0.280131 -0.376036 0.186136 0.863636 -0.254815 0.169001 0.0309074 
0.0969162 -0.024094 -1.99862 0.523755 -0.202064 -2.01866 -1.21626 -1.31587 1.28063 
1.20836 1.22731 1.25231 1.14774 1.08531 -1.33451 0.225761 -1.61011 -1.38087 
-1.08676 -1.32597 -1.10031 -2.05489 -1.2403 0.990021 2.88329 2.19396 5.07763 
3.96176 5.19695 5.9074 2.13133 6.15244 0.785383 0.712945 0.9454 0.940878 
1.04365 0.612341 1.47538 1.13562 1.25024 1.72668 1.81661 2.49607 2.4713 
2.20432 2.36294 2.61515 2.35319 2.45031 2.08273 2.425 1.51624 2.64879 
3.97727 3.37808 3.14631 2.63581 1.35915 1.27534 1.37525 0.500833 0.870753 
1.28574 0.645046 1.10663 1.28615 0.937169 0.44618 0.660258 -0.721688 -0.0704499 
-2.03719 -2.06415 -2.51414 -1.75048 -3.53829 -0.906011 -1.39736 -1.65387 -1.40832 
-1.53375 -1.73575 -1.14664 -1.50349 -1.2402 -2.64244 -2.55587 -2.78071 2.18032 
-1.41689 -1.40607 -0.107558 0.0515655 0.957232 0.373479 -0.407263 0.0218222 -0.152197 
-0.730587 1.50302 2.00763 2.07572 2.02203 2.08244 2.2048 2.30178 -3.21366 
9.12398 3.35009 0.331573 -4.28837 -3.6256 -4.5118 -2.28109 -4.14505 1.02845 
0.979803 1.00352 0.860043 0.989171 1.01289 0.908939 1.78101 2.61633 2.50506 
2.27013 2.34437 1.67973 2.23196 1.83774 4.60864 0.959698 1.66455 1.68311 
0.149534 1.05645 1.13805 0.795238 1.28175 1.28585 0.738476 0.601753 0.285471 
0.397633 0.160126 0.67706 -0.645938 -1.38059 1.28483 -1.01647 -1.03518 -0.724831 
0.856564 0.707381 0.944316 0.968394 1.00108 0.708601 0.556461 0.803185 1.69814 
-2.78612 -6.61049 -0.883819 3.17343 8.31486 8.69676 -2.72292 9.48618 2.81606 
8.78935 7.81294 8.82414 7.85385 8.18137 7.45358 8.86006 6.45092 -1.19188 
0.0406823 -0.067662 -1.99326 -0.420589 -0.395164 -1.47681 -1.31996 -1.33677 -0.899989 
-1.04272 -1.34753 -0.953036 1.63134 0.00788567 -1.97023 -0.693802 1.19495 -0.233271 
0.499376 -0.00823613 0.0356051 0.399852 0.0115528 0.250484 0.0145693 -0.00745467 0.159405 
0.900599 0.423214 0.401307 -2.39497 -2.33878 -1.98142 -1.91217 -3.28642 -2.25749 
-1.86332 -1.26716 -2.12461 -1.9123 -1.9988 -2.24094 -2.39555 -2.58177 -1.36234 
1.44019 1.31225 1.46719 -0.0343657 2.29542 1.44413 1.49366 1.1541 1.02174 
1.39067 -1.21672 -0.189335 -2.62597 0.0477154 -0.945807 0.503909 0.96973 0.214351 
-0.235428 0.377705 0.421224 0.560097 2.06438 -2.03197 0.873184 -0.47424 -1.14869 
7.39634 0.769279 -0.838341 -1.36161 2.3513 8.37699 2.50326 2.1004 -0.834298 
-1.9859 1.76904 3.48188 4.33299 6.29266 6.34758 2.13666 1.81155 3.38813 
4.86497 4.08712 5.90189 7.1237 -2.29361 -1.54176 -1.54123 -1.42946 -1.53653 
-2.62589 -1.54991 -1.47616 -1.3926 -1.766 1.06208 0.10707 0.682293 -0.238237 
0.988533 -1.1234 -1.21064 -1.22611 -1.17292 -1.63245 -1.19525 -1.15831 -1.12378 
-1.48357 -1.288 -0.919582 -1.18316 -1.13837 3.69442 4.66689 2.77538 2.63042 
6.97186 5.41209 -11.0897 -6.87507 -9.25385 4.6284 -9.43027 -12.9619 2.28981 
-6.91086 -2.39607 -7.40608 -6.80525 -7.29578 -6.39259 -4.81948 -7.60259 4.25725 
-1.86726 4.16343 1.40925 1.84124 3.56461 1.19443 1.78955 2.30995 1.40144 
1.92901 1.69178 2.24308 1.73697 1.68111 4.43455 -2.49881 3.51998 4.17137 
-8.12865 -4.62442 -7.63276 3.35331 1.38166 3.40507 4.34891 4.00297 2.3724 
4.14265 3.03854 -1.13999 -0.46887 -0.944239 -0.830454 -1.54339 -0.698239 -1.09056 
-0.387909 -1.75715 -1.80764 -2.60193 -2.14705 -1.50794 -2.1349 -1.73548 -1.74897 
0.874195 0.876581 1.18219 0.948668 0.698002 0.678942 0.845847 0.723906 1.16314 
2.53239 0.24917 -0.359567 -0.346251 -0.653444 -0.489746 -0.632164 -0.220387 -0.281933 
-1.03912 -1.93678 -2.41052 -1.44201 -2.80389 -3.19711 -2.39299 -4.08061 7.74788 
-3.7193 -4.28753 -1.76836 9.88486 -1.52239 2.62843 2.45059 1.77741 4.17529 
-1.8345 -2.72874 -1.83483 -5.62857 -1.96632 -1.96364 -2.10257 1.01672 0.903747 
0.850257 0.83325 1.22074 1.12878 0.907881 2.23442 1.20526 1.12696 1.14234 
2.33814 2.60444 2.90171 2.35695 3.35027 2.02194 -7.75813 3.323 -1.32226 
4.09471 -6.70391 -1.07123 -2.37818 0.202673 5.11503 0.605911 0.308434 0.977035 
0.204398 -1.85767 -0.891097 -2.75463 -5.81109 -3.57297 -5.28338 -0.984029 0.298774 
1.47629 0.949526 -0.508921 2.45183 -1.10434 -0.947041 -1.30412 -1.34327 2.40813 
8.99014 -0.740479 9.12257 5.71939 5.96048 -0.0412321 -0.472178 -2.87439 -3.19329 
-5.0498 -5.43614 -2.88703 -6.80417 -3.22355 -2.35508 -3.00791 -3.25757 -2.20798 
-2.99555 -2.88094 -2.90803 -2.55086 -4.07288 -4.07841 -4.37645 -2.23816 -0.895201 
-0.36241 -0.997022 -0.879268 -1.37545 -1.01571 -0.824483 -0.696413 0.576253 -0.0234392 
0.17352 0.238521 0.0962705 3.65873 -0.157853 -3.87564 -4.15947 -0.304685 -1.22252 
-2.78518 -2.51347 -1.01062 -0.651866 0.208337 0.852989 0.603194 1.59829 1.84629 
3.88775 3.29309 3.77874 1.04956 0.957155 -0.386434 1.01772 0.928043 0.51774 
0.728372 0.87555 0.904092 -2.80042 -5.65979 -4.59326 -4.41879 -3.60597 -3.78686 
-6.42132 -4.12369 -4.40716 -6.42044 -4.04615 -1.39315 -0.868015 7.20162 -1.29384 
-2.09524 3.4547 -7.02591 -8.38273 -7.68536 0.901318 0.705208 0.505188 0.788545 
1.02967 0.8303 1.4453 1.37119 -4.0887 -5.18404 -0.141402 -2.6467 0.427297 
-3.74442 -5.4276 -0.415167 -3.55467 -5.18421 0.0160996 -5.27683 -4.45874 8.89855 
-3.34339 -3.12664 -7.09099 -5.05447 0.00181813 -1.0938 -0.394528 -1.31173 -0.818459 
-0.791649 -0.784358 1.27894 3.18469 4.04899 2.55102 1.95015 0.53258 2.28879 
1.34575 1.67344 -4.67235 2.62632 4.03782 2.17611 4.07116 4.54965 3.81696 
3.30903 4.34601 1.69614 1.70736 1.52935 1.47672 1.42703 3.7195 3.4205 
1.01119 3.62493 1.56699 1.47378 3.22411 -0.59973 -1.1041 -0.975772 -1.9181 
-3.25701 -1.31665 -9.40772 -1.78809 -0.293567 -0.29047 -0.346913 -0.354619 -0.632594 
-0.938529 -2.00029 -0.343209 -9.2746 -4.25945 1.06484 5.54253 5.38454 2.75973 
4.81529 7.23682 7.71551 7.03677 8.00381 7.87294 7.59238 5.64037 5.93084 
8.15808 -1.18491 -1.05148 8.33058 -5.68503 -5.13252 1.33808 1.05519 0.6967 
0.584224 0.671549 0.595197 0.546476 0.56357 -0.27757 0.554167 0.279715 0.619412 
-0.221653 0.274303 0.316904 0.320532 0.0785642 0.304341 -2.77127 -2.83729 -5.67334 
-2.25395 -2.52692 -2.71654 -2.58101 -2.84495 -2.34883 -1.67278 -2.23832 -1.96482 
-1.98129 -2.14758 -2.36622 0.113968 0.152091 0.271281 0.617423 -0.0893497 -0.149858 
-0.245709 -0.282399 -0.398394 0.500537 -3.95209 -4.52165 -2.27189 4.66816 2.00209 
4.33384 1.42876 -2.5799 -4.04674 -3.22834 1.31197 0.683478 0.294044 -0.434277 
-0.889321 -0.853582 -1.22436 -0.884409 -1.45099 -0.489599 -1.55972 -0.0949655 -0.329275 
-0.737439 -0.785355 -0.353435 0.567594 0.261312 -0.112932 -0.358852 0.306277 -0.0174521 
1.17404 1.4634 1.27414 1.0021 1.77562 0.967259 0.951161 1.26965 1.07924 
1.11625 7.74573 -8.24309 1.7213 -4.62149 -2.63786 -6.2348 -7.86716 3.12362 
-8.40642 -6.28144 -2.89595 3.16966 -1.77412 -5.29966 0.911321 -0.311329 0.780236 
0.576168 -0.365466 0.13146 1.06962 0.79371 0.0930739 4.52779 2.23053 1.17736 
1.40967 -1.32338 -1.0272 -0.414944 -1.15659 -1.27514 -8.03028 -6.35378 -5.96128 
-6.55036 -5.6985 -5.92171 -5.52546 -2.55471 -3.17838 -2.09257 -3.33075 -4.78815 
-3.27518 -4.04074 -6.95065 -1.71005 -0.99638 -1.01102 -1.20725 -1.56585 -0.76245 
-1.33739 -1.59511 -1.19379 0.857837 1.01719 0.826838 0.985905 1.48005 1.87345 
1.47343 0.736647 -0.165166 2.76118 1.58923 1.4268 1.18103 1.95233 2.37668 
0.759723 -1.86883 -3.54577 2.98897 -3.4448 -3.87112 -3.52051 -4.50489 -4.22565 
-2.97313 -5.0272 -3.50424 -3.58427 -3.74265 -3.20568 6.69439 9.65723 7.90134 
11.0127 8.58804 1.93393 -5.18869 -5.3679 6.45443 -1.41195 -0.743887 -2.30685 
0.223113 -2.31792 -2.54432 -2.67285 -1.93342 -2.398 -4.81794 7.76817 -6.92609 
-2.40791 -5.16976 -6.14715 -6.72829 -5.287 -6.48985 -5.18734 -1.31246 -1.74482 
-0.743273 -0.838217 -0.963503 -1.95641 0.601792 1.12289 0.158092 1.45293 0.283174 
0.740029 1.42386 1.12841 -0.654245 1.71691 1.39594 0.447103 0.470975 -0.029886 
-0.749128 -0.655209 -0.975636 -0.601762 1.11673 -0.460198 0.623257 -0.988769 -1.17097 
-1.26974 -1.52456 -0.922832 -0.933251 -0.483696 0.880478 2.20174 2.04122 4.49266 
2.80759 2.99383 4.47614 2.08154 2.6092 -0.678243 -2.54236 -0.853938 -1.22942 
-1.20679 -1.23483 -1.11866 -1.14671 1.14939 1.18087 1.35178 1.48251 0.688869 
1.1131 1.03047 -10.2085 -9.07867 -1.49149 0.205962 0.191754 0.0447669 0.0063048 
0.0933557 -0.111869 1.92103 1.62121 1.88572 1.95343 2.0006 1.86538 2.05726 
2.03962 -7.23652 -5.48716 -5.13742 -5.25869 -5.36142 -4.91373 -4.84927 -5.70668 
-5.05088 -3.17523 -1.89401 -1.31014 -1.95723 1.46526 -3.05356 -1.51283 -0.12227 
-5.84914 -0.144511 -1.87743 -1.50422 1.30881 0.582655 1.41171 -0.24987 0.626896 
0.331505 -0.0965534 0.927973 0.0898641 -3.0245 -2.86258 -2.17815 -3.94155 -0.634306 
-0.652968 -0.284101 -0.500153 -1.31338 -0.694742 -0.813787 -0.635586 -0.279851 0.519435 
-0.864047 -1.66617 -0.498498 0.0850591 -0.310289 1.94663 1.25229 -2.89497 1.87743 
-2.15029 6.82312 7.73523 -1.57301 2.75566 -0.0899846 1.26235 1.15917 -0.221434 
-0.243622 -0.300479 -0.386122 -0.195568 -0.39461 -0.175347 -0.319857 -0.3927 -0.560773 
-0.71813 1.40727 1.4586 0.936726 0.90606 1.26045 -1.03516 -0.771273 -2.2497 
-1.47799 -1.08216 -0.313602 -0.775008 -1.23206 -1.42777 2.76894 1.68139 1.74194 
1.98058 -3.45015 -8.93632 -4.99261 -6.65313 -7.02512 -8.58836 -10.0012 -0.453317 
0.102658 -0.0286108 0.151665 -0.101149 -0.161657 0.024807 -7.00934 11.4622 -1.77547 
-1.74283 -5.03762 -3.12112 1.84612 3.13975 1.7622 2.49255 1.11861 2.16693 
2.01233 1.72533 1.49765 -0.711626 -1.06491 -0.259579 0.580497 -0.353775 -0.507187 
-1.24692 -1.28848 9.7569 10.1573 10.4405 10.5121 9.86897 -1.4815 -0.465525 
-0.256493 -0.473607 -1.21997 -1.32488 -1.04016 -1.31289 -1.11652 7.94428 0.7264 
5.93747 6.94059 6.26047 5.89956 -9.68608 -8.34476 -0.0603202 3.10942 -7.95257 
-5.6262 -0.274008 -0.167811 -0.573886 -0.334082 -0.789235 -0.278845 0.61512 -2.12435 
-2.12597 1.88792 1.03364 1.17847 1.26239 0.732553 -1.84544 -2.53851 -3.3493 
-1.04367 -2.2442 -1.13483 -2.49406 -0.392901 -2.95867 -1.28559 -10.2719 -3.33407 
5.97945 -1.50448 -3.56943 -5.93113 -6.06859 -8.3364 -10.465 1.90165 -4.63346 
-3.73477 -3.26588 -2.05915 -3.73152 -6.1785 -5.71094 -0.104751 -0.14027 0.302275 
0.287736 0.69114 0.727814 0.592494 0.177541 0.357791 -1.1461 -1.64736 -0.597562 
-3.6528 -1.46412 -1.50897 -2.13824 -1.94143 -2.26298 2.83887 2.51983 2.88506 
4.43236 0.125003 -0.417148 -0.222248 -0.244005 -0.39546 -0.579056 -0.0781035 -0.0870347 
0.881462 0.732066 0.181351 -0.071368 0.579162 0.524887 0.0122455 0.0885618 -3.39156 
2.03336 -1.9941 -1.50821 -1.89965 1.05716 -2.05307 -1.95684 -1.94589 -1.85184 
-3.05079 -2.21685 10.3755 6.57945 3.75673 7.43894 -6.6491 -3.19549 7.42843 
3.52241 5.87022 6.37839 11.1517 0.646988 1.34089 1.47291 0.350715 1.10364 
1.50162 2.12868 1.88185 1.47833 -3.24828 -3.25741 -3.36736 2.65385 4.14594 
6.21694 3.86762 1.2095 1.13784 6.95161 5.64167 1.07709 1.58799 1.54137 
1.2024 0.841703 7.11402 6.84102 6.93571 5.6946 4.92668 4.82594 -0.304401 
0.744962 0.137696 -0.249866 -0.654254 -0.231759 -2.03538 0.233351 -1.96495 -4.38402 
0.659777 0.340419 -4.68839 4.76136 0.379495 4.22243 7.16511 6.02905 6.27817 
5.54673 -7.97838 -7.76304 -7.24067 -9.54969 -7.28531 8.9802 7.89965 8.56356 
8.53147 8.44666 0.174264 1.18176 1.21972 1.49265 1.42149 7.98233 8.8478 
6.96827 2.09677 3.02934 3.99774 6.48518 1.68934 7.11465 7.38709 3.24042 
5.29581 5.45209 3.5105 -0.979431 1.34392 1.21903 0.233157 1.51742 1.37011 
1.36701 1.50012 1.31286 2.32357 1.60961 1.86187 -1.35349 5.71233 -1.72828 
-1.73123 -1.93632 1.38647 1.15855 1.3666 1.48693 1.29441 1.27453 0.993187 
0.421386 -1.84236 -0.35937 -2.4897 -1.79872 -1.93958 -2.25482 -2.00242 -1.71521 
-1.39641 -1.64349 -1.48416 -1.98567 -0.977501 -1.14426 -1.5138 -1.5984 1.00929 
0.996225 1.03691 1.10803 0.849479 1.02928 0.885364 -1.31635 -2.1905 -1.86098 
0.0776126 -2.20642 -1.46231 -1.41534 -2.53275 1.99069 0.168003 1.05246 2.36291 
2.74647 3.60959 2.7374 -0.0451197 1.16637 3.13258 0.928135 5.54861 1.66814 
5.41969 2.14291 2.52696 3.15652 2.35461 2.05828 2.14442 1.9152 1.40463 
2.68337 2.57708 2.54645 2.35443 0.987147 -0.805463 -0.82 -0.668437 -0.681291 
-1.1706 -1.18087 -1.26118 2.07058 2.57089 2.36956 1.98979 0.773065 0.764042 
0.646427 0.177258 -1.36062 -1.29771 -1.34555 -1.43053 -0.963539 -1.387 0.304036 
1.0024 0.292341 1.03903 0.268435 1.71376 1.67607 0.82846 1.45948 1.11199 
1.37192 -5.01743 -1.49445 5.10664 -1.02971 1.59208 2.10751 1.64378 0.540878 
0.650136 0.1773 0.615796 0.874427 0.00216629 -4.83375 -2.89279 -4.0474 -5.62218 
-5.83391 -4.79834 -4.46667 -5.04187 -4.85209 -4.52043 -7.63054 -7.47697 3.12951 
4.69645 3.74682 5.47272 3.00598 -7.42181 4.07247 -1.52343 3.68989 3.34066 
4.04398 3.20921 5.30736 5.74366 4.44269 -10.7916 -10.6659 -12.7773 -11.0544 
-7.57283 -3.96184 -1.93048 -11.5107 -10.9802 1.28093 -4.42033 1.42174 -0.373294 
3.3114 3.47868 -4.53835 -1.26481 -2.22886 -3.26344 -2.1072 -3.04614 -2.89157 
-1.68344 -4.20839 -3.85658 -4.88365 10.1305 1.15288 0.548095 1.03473 0.492761 
0.944268 -8.35776 -8.62104 -7.077 -6.84889 -7.16388 -7.32103 -7.62894 -9.2302 
-9.08707 -8.98277 -7.80793 9.61343 2.85167 7.61277 5.84071 6.95043 5.69536 
10.1137 9.05545 -1.50176 -1.12234 -0.484822 -1.54438 -4.2995 3.27943 2.12993 
3.40793 2.24991 2.95711 3.38334 3.07154 -7.11664 -6.58992 -7.27711 0.997012 
1.30404 0.968139 1.18241 1.10221 0.724967 1.16634 0.809786 0.947863 1.00208 
0.956295 0.340788 -2.76594 -1.23611 -0.558015 0.630741 -2.71218 0.735772 -1.77193 
-3.38893 0.0214389 -2.48079 -2.46274 -2.54064 -2.32987 -2.60472 -2.22952 0.864565 
0.508661 8.92139 5.67076 6.87477 -5.59349 -1.87902 -1.34943 0.324014 -1.44255 
4.49475 -0.683355 6.6001 -1.05548 -1.45984 -1.29903 -1.15821 -1.07731 1.51297 
1.4274 1.69777 1.23939 1.20576 5.87775 -9.73593 4.40751 4.85208 -0.104595 
6.2525 -2.46418 -8.47662 -9.66343 6.63397 7.91901 -1.20334 5.70753 4.88691 
5.51268 5.01036 9.68935 1.39502 0.51029 -4.11261 -3.35179 -3.53429 -3.38314 
-4.68846 -3.89176 -6.34518 -6.28296 -5.87906 -7.39443 -7.07468 -6.95187 -5.46415 
-5.39715 -4.46532 1.11178 0.753234 0.858852 -0.666344 -0.915225 -1.40361 0.379356 
0.212048 -0.690846 -0.724589 -0.0143052 10.1831 9.49643 8.6372 10.6636 5.12635 
0.655603 -0.879494 5.00301 -1.27104 -2.2768 -1.35291 -0.0789054 -1.79817 -0.730653 
3.55699 5.1653 -1.32733 4.63735 -7.12434 3.31041 4.40691 3.37063 2.30396 
3.00375 -5.75419 2.35 -2.46004 -3.56381 -3.23559 -3.41306 -2.30096 -1.63014 
-2.54042 -1.78366 -1.85016 -2.72998 -1.63824 -5.42748 8.327 -7.17358 7.28022 
5.57853 1.88382 4.27869 3.74634 5.3861 5.65408 3.73892 6.56857 4.57588 
3.78862 0.543235 -0.0931719 0.288875 0.502763 -0.23409 0.293496 0.179394 1.3469 
0.950353 0.457057 -0.564907 0.743069 2.21285 -1.33488 0.769612 -0.898587 0.381827 
-1.27752 -0.262794 -1.01205 -0.809226 -0.383378 -0.750354 -1.2873 -1.84345 0.834166 
0.0548716 1.16858 0.925377 0.767407 0.703953 0.975283 0.999332 1.55317 -4.40303 
-3.4668 -3.86507 -0.304551 2.75341 1.01142 -4.70997 -4.78004 -5.11404 -4.13596 
-4.60146 -5.2374 -0.872732 -0.61689 -0.900987 0.871819 -0.745245 -1.51004 0.218591 
-0.222144 -10.3266 -6.30921 4.93425 6.66538 -10.2378 3.16379 3.60768 4.04405 
-1.55327 -2.52443 -1.79494 -2.04622 -4.10916 -3.87235 -2.39908 -4.31652 -4.37115 
-2.89147 -3.57353 -1.96008 -3.74132 -3.25945 -3.55013 -3.35949 7.24303 7.20732 
6.61245 6.52893 7.56416 6.22637 0.503934 0.55737 0.789019 0.882518 1.2984 
1.08236 1.07452 0.37769 0.278499 0.218134 0.646415 -8.98472 -9.76906 -10.569 
-10.9868 -5.35495 -10.2 -8.77682 -10.2732 0.381686 0.142014 0.226824 0.297132 
-2.58424 -2.69722 -2.66996 -2.48838 -2.51564 -2.26306 -2.07767 -1.7201 -2.18184 
-1.8321 -1.07976 1.87972 1.63633 2.86919 2.0638 2.41523 2.01542 1.93742 
2.18277 2.56167 -1.4852 -1.7644 -1.81932 -1.66261 -1.76369 -1.81862 5.50786 
3.67575 3.31273 4.01468 4.83196 3.3392 3.34855 2.67084 3.6485 3.1404 
0.0638887 1.0029 0.000705805 0.409495 0.379956 -5.31288 -7.20517 2.76933 5.29717 
2.84618 5.41479 3.09456 -7.47283 -9.33681 2.14253 -0.304272 4.6826 4.282 
4.81604 4.54877 1.26366 5.39412 1.63069 6.20266 5.21165 2.99153 4.92463 
0.333565 3.71022 2.98025 -4.31483 -1.98689 -4.79828 -3.73407 -1.36728 -1.16906 
-1.28832 -1.26124 -1.1059 -1.04091 -0.954006 -1.019 -1.69433 -1.35174 3.04918 
-3.53307 1.62362 0.266828 -5.60121 -5.29707 -9.77212 -4.66084 1.7781 -4.00467 
-4.41351 -4.30279 -0.931344 -4.84792 -4.84473 6.42373 6.57696 5.76284 8.02671 
7.63177 7.01477 -0.274021 1.93685 2.7555 2.4877 2.61496 2.79047 -3.55598 
-3.1247 -2.3614 -3.60867 -3.05587 -3.83862 -4.26031 -3.06985 -4.93907 -12.1777 
-10.1012 -12.0892 5.43365 0.581602 -0.493744 10.647 10.2981 9.25956 9.69199 
8.65345 9.86175 10.3931 9.97391 -5.17258 -2.45766 8.60766 8.25812 -1.67585 
-1.62933 -0.881397 -1.69412 -1.21024 -0.793623 -1.76805 -1.76743 1.19267 1.01649 
1.10236 1.06331 0.984922 0.705768 1.31158 1.29111 0.76365 0.659852 0.867728 
0.845714 -2.05421 -2.09907 -1.9202 -2.28212 -2.19815 -1.57658 -2.0291 -1.71162 
-1.74875 -2.40325 -2.10392 -2.0119 -4.30069 -5.51353 -2.8693 -3.55654 -7.79018 
-6.86109 1.88288 1.30967 1.25834 1.46782 1.38972 1.084 -1.05 -0.758393 
0.665293 0.939722 0.560284 0.50384 0.389677 0.775158 4.72372 -0.440503 -0.23448 
-1.10394 -0.294682 -0.90091 0.159446 -0.967741 -0.829784 -1.40497 -1.25958 -0.857225 
-0.834661 -1.46599 -1.08787 -0.91822 0.964644 6.52963 -3.82963 -2.91368 -2.26242 
-0.206553 1.28676 1.42121 0.821186 0.971792 0.856594 -0.523629 0.865727 -1.41908 
-1.51402 -1.5685 -1.55248 -1.24089 -1.79755 -1.64973 -0.336847 -1.85568 2.28618 
2.5828 1.74564 1.62004 1.86208 2.52925 1.22905 0.659242 -0.78674 2.50743 
-0.799396 2.92186 0.37267 -0.63726 0.844341 -0.707104 1.9665 0.165696 -0.285844 
-0.0582231 -6.92304 -7.1137 -7.00733 -7.68912 -7.2686 -7.19613 -7.61665 -7.76241 
0.484731 1.00345 1.11527 0.887826 1.83548 1.72235 1.13246 1.38155 0.504518 
0.0382715 1.05098 0.166826 0.316205 0.513333 1.06235 -0.217338 -0.335713 -0.0416863 
-0.54284 -0.00801086 -0.499545 -1.07654 -1.75608 1.32396 1.54571 1.70235 2.58639 
2.36933 1.45234 1.75493 1.9235 1.83078 -0.336905 -0.46227 -0.326053 -0.320169 
-0.59759 -0.663316 -0.632333 1.89051 2.266 -0.71253 -0.767778 -0.462895 0.326327 
-0.0948374 -0.691525 -0.688037 -1.28153 -0.588151 1.57596 1.72487 1.89126 2.01292 
1.88445 2.18996 1.75496 1.92131 -0.952983 -1.12833 -0.913815 -1.03959 -0.805962 
-0.890727 -0.885092 1.05936 1.2516 1.33921 0.99433 1.2501 0.853636 1.10941 
-1.82548 -3.62064 -2.72901 -3.58116 -0.0328142 -0.0756698 -0.23113 0.191256 0.151253 
0.429657 -4.01255 5.35538 -5.43519 -3.32966 0.667433 -0.797627 -0.125465 0.140927 
-0.485732 2.24897 2.13134 1.30308 2.18046 1.47084 -1.18435 1.09425 0.279793 
-0.0435427 0.370187 -0.346492 0.967442 0.494174 -1.00075 -0.834272 -1.17391 -1.19716 
3.4768 2.45431 3.42713 3.78505 0.447824 -0.260937 -0.206678 0.094067 -0.10231 
-0.00753866 0.241141 -0.01371 -0.112698 -0.151674 0.0886176 -1.23949 0.954468 -1.98993 
-1.61555 -1.18475 -1.73176 -1.23039 -0.493019 5.5714 -0.5622 -1.65469 -0.797385 
-0.702491 2.14268 -3.76678 6.11005 2.62053 2.17414 -5.10883 -0.78906 7.2498 
6.61354 1.47063 0.830989 1.62293 1.58321 1.50329 1.84354 2.00191 2.22786 
2.00082 1.92342 2.02694 1.79708 1.90664 2.03245 0.998894 -11.2607 0.621109 
0.305943 0.476415 0.43162 -2.19527 -2.16688 -2.30071 -2.2569 -2.29106 1.30772 
1.19403 1.13321 0.786876 0.156954 1.48347 1.35014 -2.78762 0.925003 0.790287 
0.907253 -0.115648 0.900143 1.28379 1.23649 2.67935 -3.8883 2.8631 1.71638 
1.79004 -7.03054 0.973075 -2.62488 -6.62761 -1.7146 -1.18411 -7.33098 3.76053 
4.02864 -0.529018 0.51428 0.686885 0.659913 -0.177601 -2.82558 -4.03673 -2.75676 
1.65546 -2.83488 -2.11374 -6.92473 0.4156 0.665558 -0.0154383 0.433211 0.0608767 
8.38262 8.441 8.02984 7.31336 7.21983 6.9433 7.64833 3.99916 -2.71513 
-3.34514 -3.23905 -2.30761 -1.23146 -2.00225 0.235992 0.444978 0.371822 0.881789 
0.670209 0.90321 0.489003 0.553849 5.41083 5.3207 5.21525 5.16994 1.05056 
0.084789 0.169816 -0.468201 0.713784 -0.284058 0.533959 0.237889 0.140105 0.381677 
0.209799 1.05568 1.66361 1.05473 0.952271 0.221999 1.01107 1.02394 3.26568 
3.68683 -1.33656 6.71967 0.883676 1.87745 0.672062 1.03216 0.893376 -1.44633 
0.553088 -0.60176 -9.03578 2.22074 -4.89585 -5.54953 -6.12602 -6.82675 -7.23861 
-7.85502 0.375394 -7.36251 -5.36484 -4.50168 -5.4812 -4.50573 -4.77538 -7.71749 
-9.58152 -7.19621 -5.38575 4.49116 -3.09704 1.19947 -1.17509 -1.79254 -7.73732 
-9.45218 -9.94708 1.89091 2.43382 1.09809 0.853784 0.885165 1.17944 0.453488 
0.932928 0.416808 9.66455 10.1681 10.4473 10.2342 9.97046 6.77449 8.65729 
-1.1185 -1.1971 -1.06448 -1.01403 -1.30784 -1.83151 -1.22126 -0.370666 -0.962751 
0.361038 -0.143609 0.595975 -6.3759 -6.36644 -7.29875 -5.93794 -4.24932 -5.63207 
-6.11192 -1.99685 -2.16789 -1.77361 -1.7489 -1.6674 1.5782 1.09863 0.598168 
1.86844 0.802675 1.20848 1.6007 0.380284 1.79899 0.495199 0.724415 6.94659 
7.22173 5.60186 7.80178 7.06032 6.12466 6.66992 5.59507 1.66875 -2.09236 
-1.81464 -1.97425 -2.59391 -1.36815 -1.63227 -1.50688 -0.84607 -0.560836 -1.64736 
4.12095 -4.19358 1.72994 5.86151 4.61901 5.13464 3.89215 -5.20181 -7.31279 
-6.13516 -4.14392 -4.50543 -4.61165 -6.09173 -4.8425 -6.50023 -6.76778 -1.78545 
-3.3049 -4.15065 -0.699821 -0.546571 0.70914 0.970847 1.17653 1.5513 1.06493 
1.10122 1.49802 -1.63293 -1.42233 -1.28248 -1.26575 -0.283618 -1.41526 -1.05727 
-1.17035 1.75487 -1.33503 -1.46076 -1.35257 0.255103 2.47286 1.99549 1.70117 
0.32567 1.0919 2.29732 1.34825 6.99721 0.474049 0.649751 0.753914 1.10225 
0.796828 0.885723 -0.459441 -0.225751 -0.13388 0.192155 -1.15588 2.5257 3.15263 
-1.01729 3.70854 -1.33823 2.15396 -2.94225 6.97787 -6.78906 4.12017 2.26956 
-3.15445 -1.62328 -0.461306 -0.352885 -3.71016 -2.01915 -0.521751 3.41006 -0.466953 
-0.6618 -0.647833 -0.569116 -0.743121 0.764565 0.707277 1.05766 0.155709 0.935078 
0.603284 1.67706 1.0749 0.237374 0.67614 0.741507 0.532036 0.728435 6.39906 
-10.2952 -8.18602 0.927235 0.682049 5.12006 -1.05186 -1.05125 -0.87377 -0.787099 
-0.604174 0.0705294 0.507694 4.09855 3.64514 2.29189 0.800105 1.7395 1.23675 
1.20118 1.64509 0.161962 0.763115 -0.352214 -0.32229 -0.472084 -0.467108 -0.812891 
0.662543 -0.125454 1.4402 1.05314 0.817471 0.763299 0.754012 1.51688 1.40708 
-0.520295 1.34771 -3.60889 1.19237 1.39476 1.19907 1.01242 1.24049 1.78703 
1.21702 -0.190871 -0.329451 -0.182986 -0.550586 1.70637 1.7269 1.47622 1.62251 
0.548895 -3.68744 0.0313637 0.18686 0.372082 0.159737 0.196184 0.155146 0.0665623 
6.48531 2.22519 7.67661 8.05705 8.09894 3.05499 4.76108 6.71511 4.20038 
5.50927 5.92278 6.25919 6.49642 5.6037 3.54987 5.96612 -0.50252 -0.676337 
-0.555711 -0.597645 -0.55679 -0.680473 0.00467242 0.0417014 0.159161 0.0520693 -0.252608 
0.395695 -1.05858 -0.566409 1.54986 -0.476054 1.42086 1.7647 1.9889 1.35162 
-1.86837 -2.12048 -1.51441 -1.3808 -1.55584 -1.68879 -1.98157 0.838214 0.419087 
-0.151823 -0.220981 1.55423 0.766836 0.82938 1.39375 -0.273544 -0.491526 -0.549266 
-0.0441119 -0.439475 -0.543218 -0.00257 0.0786998 -1.23379 0.786594 -0.323514 0.636543 
1.55031 -5.13237 5.42376 -0.742026 -0.262312 -0.538406 5.5218 6.70355 5.71467 
5.62913 5.41696 7.19554 6.65053 7.77784 -0.592289 0.0236899 0.0961296 -0.122206 
-0.13399 -0.116998 -0.285055 -1.09478 -1.66176 -1.61137 -1.12833 -1.61542 2.76711 
3.87946 5.75872 7.08444 1.28134 7.51243 9.85655 9.19329 -0.693184 -0.57498 
-0.576962 -0.429863 -0.431845 2.3968 0.0313115 7.43427 -8.95587 -5.3176 -4.50841 
-4.47908 -4.88928 -4.77381 4.01203 3.56383 2.6483 1.95401 3.86781 3.06073 
3.0469 -0.630401 -1.02007 -2.07418 -1.74772 -1.18754 -1.17321 -1.36101 -1.13615 
-1.32395 -1.13525 -1.16597 -1.66244 -1.8968 1.42524 0.99634 0.224827 1.72895 
0.837528 0.834701 1.26118 -1.69536 0.261577 1.82025 1.67116 2.10435 1.61353 
-0.479932 1.9642 2.45756 1.88125 1.16465 2.27854 -6.70361 -0.387431 -0.264924 
-0.217899 -0.292776 -0.270445 -0.530829 -0.142389 -0.0895273 -1.34307 0.230607 -0.0131474 
3.40676 5.07301 -3.28195 -5.24399 -0.119988 -3.74402 2.84601 -1.73503 -0.561028 
-0.568452 -0.803846 -0.344913 -0.382494 3.39281 1.86219 3.56513 -4.6025 3.7935 
3.47958 3.66374 1.30254 1.01139 0.940947 1.30941 1.34586 1.35862 -0.419475 
-0.231555 -0.123188 0.137745 -1.50534 -0.061543 -1.49064 0.913297 0.544108 -0.293668 
-3.77918 -1.98991 -3.03504 -6.10892 -5.67697 -1.72034 -6.0885 -1.58986 -3.10115 
-1.78007 -1.88139 -0.716492 -0.0038462 1.40194 1.5746 1.43866 -0.605853 1.90905 
1.82729 -6.8272 -6.73021 -2.54468 -1.28886 -4.9924 -5.93658 -6.05442 -6.67543 
-0.28905 -5.63507 -2.17673 -2.13534 -1.46915 -2.19635 -1.15629 -2.22977 -10.0165 
-10.1786 -9.70631 -11.0847 -9.80533 -11.6314 -12.2219 1.15917 -1.30329 0.220309 
3.82478 -0.0884192 0.113993 -0.0909476 0.129039 0.736898 1.22088 1.79393 1.88498 
1.01058 0.219191 1.19591 1.69862 1.07559 0.919321 1.35815 1.60519 2.35823 
-0.952029 0.615745 0.659264 1.01487 0.0225067 6.48678 4.14998 3.82953 4.00462 
3.70613 4.2828 3.91162 4.52825 -0.688087 -0.636847 -0.686619 -0.725486 -0.598113 
-0.499742 -0.657172 2.35025 2.63039 1.77796 2.26579 1.7351 2.48047 1.73294 
3.34555 -7.75997 -9.09698 -10.4044 -8.20792 -1.24316 -0.287113 -0.955566 -1.33773 
-1.21661 9.51565 9.37908 7.90775 7.5673 9.42373 5.16095 3.95134 -4.25679 
-0.289241 -8.11295 -4.59929 -5.04146 2.24851 -4.44152 -4.90986 -5.62355 -4.11135 
-1.36854 3.54204 -1.93132 4.14992 0.124978 1.18422 -0.231031 1.28539 1.47259 
0.674414 0.893096 0.48145 -0.241061 0.964424 -1.22501 -0.79187 -1.69723 -1.70096 
-1.22641 -2.55201 -2.90652 -2.21915 -2.46086 -2.16521 1.95186 2.17239 1.98128 
2.00481 2.32155 1.74989 1.65904 -2.92344 -3.62847 -2.80899 -2.29152 -2.32979 
-1.27909 -3.00137 -3.53901 -1.62564 -1.0348 -1.11303 -0.737115 -0.681651 -0.848191 
-1.49762 -1.48877 1.70831 2.79362 1.2897 1.79575 1.9693 1.75133 2.0471 
-0.222334 -0.0663118 -0.139122 -0.533533 -0.458986 -1.93302 -1.71331 -1.93284 -1.78732 
-1.59422 -1.43723 -1.60718 1.39317 1.3944 1.37557 2.95654 1.25911 1.1975 
-0.272997 -0.647718 -0.95369 1.7711 1.2116 2.85055 2.70104 2.47255 2.34967 
1.91054 -6.24462 -6.0049 -6.67477 -5.15985 -6.64295 -2.05971 -3.13266 -5.4376 
1.62547 -6.68054 0.711282 3.25757 2.46237 2.33536 1.62071 1.97634 -0.226413 
-0.504518 -0.87493 -0.471745 -0.550678 0.472481 -0.797715 -0.136507 -1.22758 -0.822447 
-1.0215 -0.819848 -0.917539 -0.902242 -1.62306 1.36618 2.09327 2.14611 1.51921 
2.85272 1.98472 2.17151 1.9126 0.985476 1.03745 1.05605 -6.74305 -7.05969 
4.44625 -0.389594 -0.838292 -0.727935 -0.796254 -0.906611 3.18042 0.888571 2.08719 
0.864288 2.47694 3.65266 -0.953158 -0.549437 -0.906483 -0.0655134 -1.01774 0.330288 
0.435611 0.505372 0.489264 -3.21999 -3.39233 -3.29415 -4.27458 -3.41784 -3.00182 
-3.30994 -1.18912 -0.782581 0.425802 -1.47995 -0.919031 -0.78152 0.115941 0.187238 
0.167567 0.157712 0.149481 -2.27591 -6.0702 0.00835171 -0.245876 -0.403714 -0.0774363 
-1.09034 -0.305879 1.67882 1.24355 1.77545 1.83577 -3.36892 -3.41204 -5.22554 
-4.51816 -0.696511 -3.05884 -2.57024 -7.43775 -4.54345 -9.61984 -2.48658 -3.14108 
-5.82122 -3.97197 -5.60108 -5.16787 -5.20785 -4.54281 -2.29859 -6.14347 -1.46434 
-3.27273 -3.01214 -3.61718 -4.37068 0.21214 0.339699 0.27498 0.458483 0.322409 
0.40255 -0.668027 -0.683624 -0.736482 -0.854454 -1.29753 -0.534556 -0.753181 -1.00316 
-1.06491 -1.34411 -1.4811 -1.47548 -1.25449 -1.49481 -1.40653 -0.434707 -1.01068 
-0.569964 -0.475682 -0.947315 0.546384 -0.958414 -0.767134 3.4284 3.36141 -1.52462 
-1.64241 -1.17916 -2.1962 -1.73635 -0.671039 -1.35215 -1.88295 -1.73255 -1.68159 
-1.32241 -1.47192 -1.44549 -1.41774 -0.450713 -0.450488 -6.265 -5.88138 -5.44606 
-5.71762 -1.31042 -1.22438 -1.34254 -1.09041 -1.39709 -6.68386 3.95852 0.324244 
1.1687 0.836539 0.90423 -1.04782 -0.992109 -0.87268 4.74231 -1.04087 -0.90633 
-1.90911 -0.560304 0.101703 -0.415397 -0.64933 -7.1997 -9.17748 -9.25591 -8.98229 
-4.79494 2.01759 6.89526 1.98147 2.38992 2.23132 2.329 2.73698 0.379567 
0.330272 0.490163 -10.0125 -9.1289 2.04214 1.06658 2.14239 -2.54745 -0.101951 
-1.3565 -0.00860387 1.26373 1.56668 2.09784 1.97908 2.03061 2.34265 1.91437 
1.43045 1.43665 1.41425 1.21678 1.4441 1.4928 2.36367 2.48617 2.47376 
0.734737 2.25871 2.06912 -2.11625 2.58543 -9.39904 2.6987 5.65436 3.00652 
0.717344 -0.322624 0.0579623 -0.0488911 -2.04486 6.88116 -0.107983 -3.71454 -3.68059 
-2.10185 -4.38708 -0.736656 -3.27835 -1.48431 -2.64462 -2.52394 -1.34864 -1.90725 
-2.4042 -2.31154 -2.05041 0.362471 0.328515 -0.06254 -0.50257 -0.487345 -0.674656 
-0.461314 0.796985 1.02964 6.52632 1.20242 1.6612 2.04533 0.75388 1.59811 
1.07482 0.82219 0.777904 -0.373138 -0.0687062 0.00810541 -0.301552 -0.35366 -0.013998 
-0.262626 -0.236494 -0.203517 1.32459 1.91101 1.92276 2.03855 1.65755 -0.607682 
2.34581 -0.536826 -0.64134 -1.60658 -0.131089 4.26254 -0.565174 -0.129928 4.53192 
-3.75596 0.710163 -2.19499 -2.91029 -1.79186 -3.22229 1.12891 1.08067 0.99397 
1.16835 1.4141 4.83567 4.72349 2.96285 4.53122 6.60175 1.10372 0.178058 
0.0402889 -0.0523294 -0.336729 0.214011 0.54311 0.398838 0.550526 0.162268 0.286856 
0.492561 0.403271 0.306921 0.325593 0.41766 0.507442 1.19564 1.238 1.40144 
1.29708 -0.454635 1.16058 -0.283511 1.13775 1.01149 1.10663 0.885525 0.823096 
0.932992 0.870564 0.835443 0.943843 0.337768 1.16118 1.01548 0.951558 -1.23076 
-1.00965 -1.41478 -0.466905 -2.46988 -1.07893 -0.907001 -0.795781 -0.883399 -0.598496 
-0.406018 -0.764201 -0.193957 0.0687125 -0.361874 -0.153794 -0.65579 -0.479556 -1.07863 
-0.709934 -0.558473 8.41698 -1.7282 -3.32099 -1.92491 -4.50523 -4.50842 -3.0224 
-3.96265 -5.3177 -5.94625 -6.40443 0.109014 -1.36122 3.26102 -4.91939 -0.991593 
-0.407064 -2.56615 -5.30178 -4.70469 -4.3595 -4.91554 -5.07108 0.557597 0.399918 
0.249371 0.133244 -0.0254818 -0.107131 -0.0197988 -0.113417 2.74908 -3.70858 2.53729 
3.6119 3.10577 3.05806 3.52279 3.00033 -0.357629 -0.703785 -0.326412 2.28609 
-0.369176 2.73678 -1.23626 -0.0985678 -0.43332 -0.981007 -0.318001 -1.00592 1.45994 
2.01701 1.42381 0.698171 1.67766 1.49818 -0.0669194 -1.99584 0.0593471 -3.86342 
-1.6296 -4.40812 -4.37408 -1.33581 -1.30318 -1.22791 -1.31978 -0.829715 -0.400127 
-1.10501 0.021318 -0.394126 4.86523 -1.44526 -4.45896 -1.75101 7.55127 7.6535 
10.1233 -0.796174 -0.57661 -0.560302 -0.651324 -0.69902 -0.448309 -0.614292 -0.424439 
5.10935 -0.441293 4.8927 5.67675 7.28657 5.58097 6.82158 3.97468 7.67848 
1.22524 1.13537 1.07564 0.526765 0.947181 0.411286 0.662121 0.862259 0.954365 
1.07038 1.34109 7.26911 7.39023 0.501982 0.911305 -11.305 0.603267 -10.4215 
0.746637 0.34604 1.48856 -0.146287 0.625614 -1.03055 2.4454 2.492 2.30801 
2.37917 2.14582 2.26152 2.19623 2.13612 2.07433 -5.42413 0.424576 1.9023 
-1.79402 4.78397 -5.83994 -4.52776 -2.77183 4.33631 4.78868 4.56113 4.35868 
-5.0065 3.83481 -1.45757 -1.65227 -1.4459 -1.31136 -1.23214 -1.63582 -2.58824 
-1.77898 -2.08945 -1.65429 -1.37853 -2.21117 -2.4981 -2.65362 -2.33126 -2.28209 
-1.78161 4.21409 3.87633 3.4546 3.78009 3.21679 3.89111 3.56561 3.87537 
3.63397 1.67178 1.60408 0.540237 0.112806 0.389026 1.52246 1.6307 -0.978762 
1.16283 -1.31566 -1.21091 -1.4674 -1.11204 -1.22488 -1.18306 -1.40297 -1.74546 
-0.897264 -1.39842 -6.595 1.37793 1.4929 -8.16192 -6.43487 -4.92024 -6.64729 
1.06877 -1.22242 7.65895 -1.1171 -1.30721 -1.63796 -1.43418 -1.52133 -1.85255 
-1.27225 -0.980087 0.218747 2.28917 -0.069341 3.39419 0.443545 0.0363046 -0.957163 
3.23968 9.16193 8.54423 8.13368 8.60912 7.04526 1.50898 4.88829 4.40627 
4.28243 5.08759 3.39536 4.00685 3.5884 2.40296 2.55908 2.50465 2.26506 
2.20148 -5.98294 -5.1089 -6.81094 -1.19552 -3.68239 0.668509 -4.12853 -9.46712 
-6.86123 -3.46948 1.74718 1.65383 1.76101 1.80015 1.69298 1.92871 2.11426 
1.56081 3.03885 1.91625 2.46998 0.912175 0.967394 0.816657 0.750021 0.992263 
0.554493 0.985995 0.221231 0.663657 0.771536 1.00319 1.96926 2.42346 1.61394 
2.27535 2.07279 -5.3657 -1.73559 2.27289 2.40603 2.31144 2.51385 -0.39672 
0.366578 -1.22258 -1.35816 -1.07942 -0.475802 -1.77487 0.546795 0.672287 3.21567 
2.41748 2.23449 2.17648 2.14065 0.7503 1.01492 0.600545 0.619846 -4.25794 
-4.28762 -5.96285 -3.37393 -6.87655 3.91872 4.64752 2.45497 0.191797 2.87228 
0.739048 -1.12215 -1.17164 -1.60924 -0.227709 1.10367 -1.50519 -2.23496 -1.87731 
-1.41296 -2.04091 -2.12393 -1.19047 -1.67487 -1.6663 -1.74654 0.363918 -0.233599 
0.109049 0.276822 0.101956 0.529093 0.483222 1.622 2.01453 2.12019 1.11972 
1.96397 1.1695 0.976266 1.78313 1.76261 -0.938017 3.94082 -3.01859 1.57318 
2.4275 7.62054 0.708623 -9.93653 -9.15794 -8.49946 -9.78422 -9.56342 -10.1092 
-8.89529 -10.2201 2.61664 -2.94352 -8.4126 -6.84035 -0.738167 -8.40087 -5.00957 
1.58527 -9.3442 6.19264 -3.52876 -3.44643 -3.43338 -2.39821 -4.59089 -2.75254 
4.72804 4.74258 4.78722 5.30416 5.17139 5.5714 -1.44271 -1.43576 -1.18821 
-1.57777 -1.40264 0.0107229 0.508053 -0.113657 -0.504906 0.0580779 -0.123804 -0.227043 
0.601472 -0.159766 0.606859 0.0649763 0.584875 0.205279 0.604737 0.505307 0.799848 
0.8523 0.873799 -1.03046 -1.52034 0.294944 -3.05279 0.371848 -0.619576 0.917327 
0.285011 0.249233 0.27587 -0.395494 -0.280033 -0.237661 -0.283802 -0.442891 -0.471098 
0.043969 1.47132 1.83173 2.36644 1.5494 2.39792 2.4581 0.189573 0.3057 
0.497352 -0.0602425 -0.0490206 -5.87174 0.330978 0.58445 -0.06631 0.328723 -4.5826 
-3.15763 -3.45485 -3.22137 -3.34 -3.79382 -1.06575 0.0291761 -0.233918 0.924783 
-0.254412 1.56355 0.654909 0.324809 2.82535 5.73576 0.879432 5.81874 3.53884 
4.77405 2.83159 -0.748845 -1.80928 -1.74155 -1.55191 -2.38277 -2.29774 -1.70907 
0.671595 3.64731 3.39193 3.82374 0.902647 -3.84122 3.64764 1.10791 1.13012 
1.21103 -5.06222 1.59867 1.57694 1.85895 1.96892 1.12257 3.44402 3.62819 
0.519887 0.422726 -2.72976 -2.88557 -1.38686 -1.22309 -1.46426 -1.24943 -1.3095 
-0.588487 -0.669036 -0.464546 -0.574743 -0.711074 -0.660495 -0.600938 -1.46201 8.15176 
-0.199399 0.175265 0.129719 0.886563 -3.09169 -1.93812 0.542584 -2.06554 -2.62243 
0.437778 0.588388 -3.83534 -0.327258 0.724907 -1.69945 -1.01179 -1.4049 -1.28724 
-1.10476 6.68222 4.83508 3.28982 -0.474552 1.20343 0.206871 0.969131 0.0354678 
1.25602 1.65391 1.72455 1.29348 1.29656 1.84918 -5.42273 -5.86254 -5.81567 
-5.99028 -6.38034 -5.70082 -5.57959 -9.43981 -8.90497 -8.51813 -8.73989 -7.97158 
-8.52095 -5.48826 -8.23688 -4.50711 -1.42049 -3.91222 -4.44567 -4.29295 2.63531 
0.755449 0.862595 0.853214 1.04464 -0.902391 -1.81368 -0.688428 -0.944216 -0.667428 
-4.91974 4.74484 0.599785 5.09871 -3.67388 1.36223 3.07426 1.78483 2.01332 
1.90306 1.55005 -2.87546 -0.187144 0.281241 -9.09375 2.45764 2.0221 1.9862 
2.0641 0.349203 0.523915 2.56824 1.05665 2.1965 2.55804 2.0525 3.18612 
2.17433 2.88393 2.66187 -0.259516 -0.19484 -0.295006 0.84758 0.893487 1.72068 
0.882692 0.720873 1.15111 1.01322 1.31218 1.11365 -0.367204 -1.41405 -2.5852 
-1.72482 -2.09237 -1.48901 -1.74953 -1.86525 0.267159 0.616832 0.263329 0.612836 
0.573774 0.423854 -1.38761 -0.764405 -1.30428 -0.72145 -0.155143 -0.614676 -0.239926 
0.560123 0.416806 0.627203 0.608097 0.678119 0.697226 0.624007 -4.09531 0.232036 
1.66593 0.781872 0.334367 0.860912 1.31988 0.653975 0.269353 0.589949 0.747052 
1.70206 0.545488 0.740348 0.559576 0.320372 1.18057 -7.89548 -5.40004 -6.68365 
-8.61658 -9.09622 -9.04724 -8.60716 -8.69687 0.752136 0.783606 1.11259 1.21232 
1.12571 1.14008 1.58402 1.0739 7.96639 7.06794 6.04474 2.54508 4.36517 
4.43821 3.6972 -1.52168 -2.81543 -3.78 -2.81928 -0.921813 -1.03711 -1.23001 
-1.68544 -1.44826 0.31112 0.21964 0.152074 1.35229 1.16541 0.413884 0.244462 
0.232232 1.25542 0.213376 1.52423 3.21837 -0.541682 1.00567 1.04335 3.56007 
5.00903 4.03921 2.68726 2.35554 4.22823 2.70629 3.69982 4.1575 4.78464 
2.76713 2.97451 3.04476 3.162 -1.60678 -2.5128 -1.71374 -1.55029 -0.271268 
-1.69657 2.16312 2.40175 2.80477 2.70676 1.06179 0.939764 1.14378 1.05857 
0.822802 -0.220639 -0.0779627 -0.281597 0.0965049 -0.679862 -5.15693 0.293373 0.475143 
0.172894 0.154832 0.275311 2.71628 0.696645 0.541491 7.23145 -1.76403 -5.67974 
-5.88083 -1.99532 -1.74298 4.4623 7.82679 4.4169 -6.12339 -4.79838 -5.74247 
4.37088 3.34809 2.55889 -0.513669 -1.30287 7.69564 4.16068 7.23197 5.42738 
5.74582 2.30085 2.03561 2.52569 0.96146 1.16571 0.971083 1.78837 3.09892 
1.27782 1.48091 0.137819 2.48124 1.65039 1.63797 0.954888 1.13971 3.83983 
2.3496 1.42836 1.05269 1.44757 4.03796 -2.4468 -1.79067 -2.64868 -3.60168 
-3.5065 8.54674 0.562937 0.0320598 1.12047 -0.236186 2.77041 1.09755 2.34917 
1.9684 2.36161 2.76108 2.12378 3.72118 2.38511 -3.81687 -3.72251 -3.35442 
-3.44878 -1.92102 -3.28982 6.31328 0.932109 -1.80772 0.0760268 0.015261 0.409393 
2.70956 0.811837 0.733854 0.871904 3.9503 0.247958 -1.61937 1.16181 6.21523 
6.03381 5.77075 -8.8906 -1.50106 -1.17054 -1.32519 -1.28672 1.21387 1.29573 
1.31349 1.92145 1.3723 -1.53674 -1.43612 3.63044 1.22859 -9.27263 -8.7029 
-4.92217 -4.94885 -9.93325 -7.3776 -9.27501 -3.89895 1.78752 3.07779 -4.95878 
-5.19628 -4.75356 3.27262 -2.17043 -0.784755 -0.294801 -0.963847 -1.48495 -1.87458 
0.555319 -0.900388 0.568933 0.576099 0.664307 0.652622 -0.932946 -0.855344 -0.757116 
-0.709952 -0.723432 -0.735335 -0.848313 0.653826 -1.3947 -1.83587 -1.82936 -2.28143 
-2.35466 0.325131 0.264404 0.250823 0.012935 3.35018 0.175188 -3.81063 3.29548 
6.43525 2.565 4.15494 3.33354 4.0116 4.833 -0.508257 1.3172 -6.62709 
-2.9582 -0.19449 4.34882 -0.136057 -5.27747 8.01656 6.30985 4.38284 3.81931 
1.33771 0.318743 0.0539705 -1.13213 -1.04511 0.559112 7.38751 0.744563 0.45788 
0.729986 0.398604 -0.0669956 -0.844979 0.279309 -0.715588 4.31276 -3.57981 -3.09879 
-6.37992 -5.73336 -5.98312 -6.43928 -3.53692 -5.88599 -4.20904 -2.46526 0.543642 
-3.01226 -3.2 -6.00396 -5.2737 -4.75411 -2.66757 -4.27869 -5.35661 -0.639265 
-0.652183 -0.637344 -0.615111 -0.476183 -0.573177 -0.453445 0.150001 -0.15815 -0.722123 
0.148102 -0.746966 -1.46548 0.863629 0.0532878 0.454181 -1.26599 -0.758052 -0.883401 
-0.821715 -0.818438 -0.98546 -1.00231 -0.886199 0.643855 1.08554 0.817593 1.09893 
-3.21599 0.943118 1.15403 -2.34428 -3.63528 -3.81837 -2.00108 12.3672 8.58891 
-1.29454 -1.32173 -9.2458 -8.94681 -4.94452 -5.08539 -5.26623 -5.12537 0.39814 
0.387883 0.272545 1.60896 -0.553019 1.32795 -3.79116 1.33993 -2.50132 5.6047 
4.85973 5.85417 5.21655 4.70938 6.01105 -0.673456 -0.364171 -0.506629 -1.24876 
-0.00385996 -1.19539 -1.35077 -3.02534 -1.6067 -0.316677 -1.87261 4.68968 -1.39745 
-1.51856 -0.587208 0.719194 0.676426 -3.13378 1.5508 -3.96274 -0.911043 -1.05729 
3.20329 -0.909069 -1.00614 -0.323727 -1.22564 -4.32668 -4.12105 -2.19397 -2.958 
-3.89529 -4.28531 -1.50392 -3.99219 -1.55037 -0.356665 3.24582 5.01657 0.874873 
4.33399 -2.60294 -3.28709 -3.7478 -3.5877 -2.92094 -1.40691 -3.38442 -0.105125 
0.544352 -0.592012 -4.22065 2.52126 0.254234 5.11079 1.62313 0.941527 2.05236 
1.1709 1.23177 -0.357665 -1.3776 -1.44351 -0.45579 -0.247279 -1.09998 -1.09229 
-1.68634 -2.57861 -0.155786 -3.46447 -9.12888 -5.8873 -10.8369 -5.89782 1.10725 
6.33829 6.33654 5.71703 -3.6522 -0.622689 -4.08514 -3.9368 -0.584979 -0.717782 
-3.90988 -2.35516 -5.32128 -6.05007 -3.07504 1.9577 -0.126209 -0.575637 -0.405138 
-0.453916 0.849111 0.551145 -12.2662 1.19347 1.06882 -5.80631 -4.53232 -5.27316 
-5.90823 -4.74213 -0.0327217 0.728408 6.63054 -2.31919 -1.3755 0.568199 -2.01601 
0.0681194 -0.173829 0.204314 -0.129008 -0.862078 -2.42875 0.531409 -0.306861 0.385121 
-0.153425 1.20377 0.976625 -0.293289 3.09432 3.10567 0.743219 2.78315 -3.98528 
-4.11273 -6.25387 -5.20852 1.8008 -4.44603 -4.65072 2.28664 -0.452954 -0.520957 
-0.189982 -0.109321 -0.283084 -0.251124 -5.0233 -4.72433 5.96742 -7.23854 -6.05913 
-4.60793 5.96569 5.58927 6.04986 4.20551 2.63982 4.12084 5.04045 -0.406028 
6.09545 2.43537 -0.390594 5.90818 5.66805 7.40293 -0.51448 -0.422943 -0.57441 
0.563753 -9.12616 -0.3232 -1.10768 0.229653 -1.13033 -1.05658 4.24542 -0.838743 
-1.01068 -0.761446 -0.930982 -0.817466 1.09641 0.687073 1.02271 0.634453 1.31336 
0.85785 2.44389 1.11991 1.51842 1.92613 0.128113 1.60654 1.35331 1.77478 
-6.12623 -2.68391 -3.29868 -2.22737 -1.57549 -2.76451 -1.79628 -3.46719 0.729333 
-0.155602 0.0678544 -0.187993 0.707623 2.44029 -2.20008 0.83842 0.651951 -3.30892 
6.06835 6.19613 -2.18705 -0.941979 2.57846 1.90055 1.17778 0.499872 2.23433 
-2.38059 -7.06957 -3.27928 -2.42845 -2.13105 -9.3415 -8.45366 -10.6589 -10.8296 
-10.4295 -10.388 4.17259 2.76356 3.41796 2.85637 3.511 2.68074 2.61323 
0.0487426 0.629316 0.560939 0.465535 -2.59871 0.599888 0.525112 1.85732 1.73914 
1.77506 1.65688 1.70178 1.72918 6.81164 -3.72115 -4.73359 3.64209 -0.24926 
5.06625 3.23225 3.11551 2.13995 5.145 4.95919 4.65296 2.24329 3.56207 
0.884964 1.18524 1.09083 1.07288 0.978465 -0.292757 0.444683 0.289648 0.495259 
0.303173 4.78901 -2.10598 1.41825 -6.17541 -4.92672 -3.15374 -3.37566 -3.32679 
-3.10487 0.624583 -0.0168542 -0.14655 -0.186938 -0.0620869 -0.106189 -0.619315 -1.08397 
-1.28166 -4.2915 -1.41987 -2.00051 -1.45872 -0.456406 -0.315644 -1.18432 -1.04783 
0.988326 0.33426 0.184077 0.425997 2.63309 -1.87404 3.08197 -2.61566 -4.38585 
-3.9454 -0.798779 -0.860907 -0.381166 -0.567927 -1.12167 -0.806318 -0.0938937 -0.516353 
-1.04165 -0.957225 -1.41495 -5.16251 -0.461631 -1.35211 -1.33866 -1.52677 -1.64797 
-5.71719 0.486148 -1.92139 -1.88313 -1.45446 -1.69153 -1.57471 -2.04779 0.903351 
0.831231 -7.05565 -6.44135 5.68857 0.0623094 0.807773 -4.55626 4.26623 2.94183 
2.37438 2.37633 2.7197 3.33879 -1.31179 -0.547025 -0.674366 -0.982924 -0.653906 
-0.15618 -0.414052 0.848461 0.829538 1.03443 3.16108 1.07337 -0.995263 -0.692078 
-1.70783 -1.63162 -1.01346 -3.92254 -1.5925 5.93735 -4.02288 -8.17781 -7.44901 
0.737101 4.62099 4.01251 4.80859 4.33029 4.29421 4.11725 4.81814 4.85514 
6.68067 3.54911 4.24889 5.25038 -8.63673 2.07088 1.32679 -8.18962 -8.54262 
-8.42512 -8.84141 0.514407 0.297143 -0.164288 0.590307 1.04949 2.73487 3.94449 
4.3458 4.46763 1.55101 1.71902 1.51748 -5.08971 1.72592 1.63284 2.45847 
1.86653 5.60038 1.39568 3.43394 1.50058 2.63893 1.68702 1.34593 1.42719 
-0.601143 0.973945 -1.42228 -1.53462 -2.08819 -1.90592 -0.310461 -2.19362 -1.77333 
-1.87785 -1.3313 -1.33905 -0.511861 0.217326 -0.0802113 0.0381554 -0.112757 0.315914 
-0.0261357 -0.40776 -0.433549 -0.247733 -0.273522 1.10127 -6.07207 0.45375 0.682577 
0.456081 0.143143 0.0404762 -0.298189 0.0393147 -0.0633518 -1.85528 0.553011 -2.24577 
-2.37129 1.34779 -4.68113 -0.683863 -1.75521 -3.18795 0.1843 5.27251 -1.59886 
2.03216 1.8528 2.24914 2.15867 0.248185 -1.74152 -2.74204 -2.34492 -2.0361 
-1.57875 8.7656 8.97821 5.65592 6.81438 6.9602 7.27189 7.5329 4.49074 
-0.361956 3.94382 1.97511 3.07827 2.57129 -1.26027 -5.81426 -1.00297 0.058091 
1.76767 2.68917 0.959435 2.03332 1.51542 0.859142 -0.233282 -0.653432 -0.473517 
-9.20938 2.1222 4.94494 -9.17053 -10.238 -6.16626 -6.14047 -6.86927 -5.50915 
-5.80116 -5.42343 -5.73479 0.0403751 -0.0890674 0.0471271 -0.203491 -0.278744 -0.823878 
-1.25703 -1.2708 -0.766788 -1.49422 -0.786715 -0.817584 -0.432632 -0.85991 -2.83587 
-2.3483 -1.45893 -6.38149 -1.39908 -9.25868 -4.46119 7.16285 1.09187 4.24813 
3.45956 8.76467 -0.14192 2.5378 0.74556 1.76278 -0.157064 -1.0327 -0.398072 
-0.410745 -1.24191 -1.87435 9.00269 7.74801 8.26094 10.5951 1.05791 -8.71072 
-8.38049 -9.69765 -4.24462 -7.98766 -6.15584 -9.6608 -9.4096 -8.17241 -7.67955 
-0.929377 -1.9497 -1.88135 -2.06946 -1.86602 -1.82922 -2.01264 -1.88982 10.3948 
10.674 9.92423 8.60127 10.3652 10.4309 10.0477 0.500944 -8.36101 -6.24889 
-3.1147 -7.01565 0.710573 -5.33148 -10.8885 -10.1811 -1.53055 -1.39 -0.128993 
-1.47688 -1.39098 -1.41104 4.29604 5.97565 7.09811 8.77928 6.36625 1.62111 
5.28351 6.65182 6.41873 4.81231 4.48878 -10.5014 -6.1426 -3.69754 -1.35957 
-0.254067 -0.101436 -0.160477 -0.0189224 3.25584 3.51615 3.29988 3.79357 -0.680108 
-2.18818 -3.41599 -1.09373 -2.31431 -1.66244 -2.2367 -2.38607 2.3564 -3.93525 
-4.65651 -2.13808 2.65147 -6.01493 -5.00946 7.05948 -2.00764 3.26323 -3.91981 
3.26249 -1.76966 -2 -1.92782 1.74643 2.03932 1.8317 1.55115 -2.45804 
1.97802 1.60201 1.2837 1.28561 -1.07211 0.528535 1.14807 1.06175 -0.403629 
-0.459087 -0.559128 0.936082 0.941829 0.885546 2.17247 2.73522 2.51524 3.18201 
2.63334 2.82919 2.58607 2.53741 1.76545 -2.07579 -0.830304 -0.896283 -0.864989 
1.18181 -1.21692 2.90417 -1.45347 -1.52393 -1.60508 -1.29108 -1.37252 -0.370773 
-0.526841 -0.534972 -0.502972 -0.479538 -0.521967 -0.537899 -5.18533 -0.764399 -6.0048 
0.348317 0.736552 -2.74647 -1.72724 3.46652 1.99585 -2.16136 -0.974376 -1.4192 
2.16425 0.613072 0.164711 -5.95175 0.272725 -5.91857 -5.71149 -3.55834 -0.515716 
0.118097 0.107991 2.03153 1.67104 1.77245 1.75065 -1.46947 3.2474 1.11605 
1.58668 -3.06312 -6.33023 8.33594 1.66769 -2.66268 -0.410758 0.116494 -1.03749 
-4.57274 -4.80477 -3.79356 -3.45459 -3.8379 -4.06002 -4.01568 -1.04 -1.1906 
-1.36656 -1.04276 -1.02935 -1.0299 -0.500714 -2.56169 -2.14158 -1.54801 -2.34182 
-2.33229 1.16933 0.843119 0.954663 0.983957 1.17269 -4.04218 -5.41599 -6.44343 
-6.38742 -3.83456 -4.16166 6.14151 3.00695 3.5033 3.27025 3.56407 0.010632 
0.149974 -1.88304 -1.92497 -2.55821 0.87879 -0.48575 0.877608 1.04072 0.7836 
0.896378 -0.420458 -0.316592 -0.275662 -0.263256 -0.294169 -0.815626 -0.546984 -0.638101 
-0.235022 -1.29668 -1.56467 -2.5439 -2.59977 -0.408619 -2.09124 -1.62629 -1.823 
-0.710561 2.25254 2.26838 0.114754 -4.00523 -3.25936 -3.10682 -0.314078 -0.00623261 
-2.41227 0.00150361 -2.36661 -2.47499 -1.27755 1.36602 0.981542 -3.24305 -7.05678 
1.00617 -6.10791 1.72632 1.87417 1.28979 2.44238 1.35781 1.4509 -0.6668 
-0.751561 -0.410786 -1.04221 -4.13388 -2.58766 2.53438 -0.299124 1.68922 0.549492 
0.943152 0.617475 0.437127 0.487456 0.437849 0.326163 0.36561 0.253924 0.544636 
0.355462 0.395701 6.82258 -0.140335 -0.131087 -0.308788 -0.391646 2.28332 2.14279 
2.34195 2.20141 -0.134229 -0.220884 -0.582621 -0.1416 -0.123639 0.0373625 -0.309341 
-0.419418 0.263913 -3.73018 -3.66491 -2.33555 -3.99835 -3.32015 -3.02398 -2.35544 
-4.33949 -3.04612 -0.0767773 -4.5894 -2.83998 4.09345 4.44146 7.51892 3.46625 
0.22168 -0.5955 -0.683513 -0.711292 -0.631762 -0.58065 1.86919 3.06457 2.30057 
2.82299 2.39987 -2.90847 1.88306 1.94149 2.55572 -0.0170702 0.0283204 0.0217139 
-0.0441193 -0.113432 -0.0595 -0.203542 2.20478 1.43492 0.486621 1.2192 1.24686 
1.28524 3.74562 5.03779 5.72366 8.1344 0.619371 2.31491 3.72003 1.51295 
-1.28754 1.77742 2.04982 -0.500608 -0.525664 -5.54106 -4.74185 -5.23867 -4.47245 
-3.76847 -6.23836 -5.47274 -5.7891 -1.19519 -1.08841 -1.02396 -1.01761 -0.708401 
0.415382 1.74542 1.33638 1.80474 -1.71549 -4.31179 -4.90412 -1.80561 -0.565834 
-0.572803 -0.345176 -0.202556 -0.0739539 -5.36506 -4.08527 -6.01591 -1.64741 -7.81693 
-5.59208 -3.05364 -1.57114 0.723539 -2.06337 -2.97813 -3.17905 6.78077 -1.29508 
-2.92251 -3.35285 -3.11828 -2.49144 -1.69904 -1.56415 9.46163 -2.14406 -2.21534 
-2.74167 -2.13531 -2.00638 6.00095 5.94048 6.3123 3.34168 8.2166 4.83248 
-3.95774 -2.13301 -4.65019 4.36704 1.72409 -2.27164 -4.46462 -0.524196 0.467457 
0.229457 0.415681 0.125354 1.1974 1.07514 -0.202839 1.30183 2.00381 -0.0378135 
1.80004 1.43808 2.16329 1.23044 1.45288 1.63467 -4.17461 -6.57553 -5.12221 
-5.59083 -2.79225 -6.03113 -4.07374 -5.59259 -1.81202 -0.793973 -5.71596 -2.38149 
1.77673 -2.90831 -1.73472 1.71222 -2.9844 3.87659 -5.05602 3.99451 4.02531 
-5.25711 -2.73819 -1.33187 0.137616 -1.3121 -0.974437 -1.6023 -1.33081 -1.40756 
-1.00088 -1.25647 -1.53111 6.27013 4.27548 2.05252 5.79966 2.48761 4.07449 
2.0545 4.45808 2.44061 2.4903 -0.212044 -0.0761078 -0.263047 -0.32425 6.32626 
6.77912 3.86011 6.93997 3.30215 4.99183 5.07222 5.41055 1.46769 -4.38599 
-2.43276 5.98087 -3.4483 -0.215303 1.18964 1.09527 4.28121 3.79841 3.45342 
2.88057 -3.53567 -1.37651 -1.59756 -1.47709 -1.4328 -1.29322 -5.79877 -1.28021 
0.159936 5.64782 -0.95699 -1.67851 -1.68841 -1.62081 -0.83082 4.81109 5.89046 
6.58746 5.42584 6.91785 10.3113 -0.6738 -0.689268 -0.678249 -0.610743 -0.636379 
-0.690431 1.98164 1.68114 -0.382413 2.09226 5.41895 -0.711899 0.274953 -1.38424 
1.01767 1.37208 1.63298 -7.64065 -7.6519 -8.20033 -0.757969 -1.29329 -1.34372 
-0.98657 2.66987 2.91741 3.14743 3.20499 -1.38428 4.93884 1.5449 -0.603435 
1.64921 1.31848 4.29767 4.07992 3.93199 4.57182 4.631 0.666019 -1.82981 
1.31155 1.22367 0.991767 5.42501 5.22622 1.57807 0.399644 1.81617 2.31827 
-2.0926 2.49053 -1.00647 -1.73066 0.434786 -0.48767 -0.0747075 -5.41327 -4.21591 
-4.55306 -3.35571 3.12705 3.14974 3.71234 0.00360391 0.0799845 -0.0134508 0.0629298 
4.04185 4.12741 -6.79329 -6.36025 -5.76112 -2.04272 -5.52518 1.37216 2.01013 
2.66667 1.22851 2.06072 2.44602 -1.4359 -4.24748 3.37251 -6.63958 -3.98453 
1.8213 1.62965 1.63108 1.90946 -1.05402 1.84271 5.29837 6.42464 5.07193 
5.30557 5.39038 6.22162 0.716028 3.41003 -5.23161 0.705298 -6.45415 1.4701 
-4.83669 -6.08631 -6.92365 -6.19527 -4.24164 -3.78853 -5.28572 -5.79889 -4.31555 
-5.8376 -4.93652 -5.24577 -5.61862 2.20122 2.32096 1.89927 1.88299 -0.841904 
-0.580669 0.50615 -0.603468 -0.715574 1.97463 -1.06966 -1.48853 -1.24611 -0.640122 
-0.862587 -0.90785 -1.00336 -1.01621 -1.06148 2.85781 4.20339 3.89255 1.12514 
4.09581 4.03064 2.55673 2.20875 2.11006 2.86248 2.081 2.55507 -0.435459 
1.35202 1.32768 -1.61625 -1.65645 0.486562 0.476759 4.39696 3.86864 5.16082 
0.502398 0.842788 -0.96333 -0.934546 -4.07238 -0.224183 0.83678 -1.79855 6.08221 
2.96504 5.87323 1.88564 2.56414 1.33515 1.3062 1.27131 1.30026 1.25278 
1.15341 -1.4617 -1.56084 -1.41256 -1.53307 -1.2513 -5.923 2.9569 4.29807 
4.27409 -3.12094 -7.68682 2.75396 -1.1838 -1.78141 -1.14514 -1.18677 0.324423 
0.292394 -0.57591 1.12219 -0.934934 2.02327 4.71914 2.67453 3.26125 0.506782 
-1.04975 0.485738 0.381902 0.330389 3.8203 1.89654 2.4472 2.9698 3.95728 
6.30448 5.10794 4.28734 0.315061 1.43003 1.54707 1.51661 1.27854 0.456303 
2.75193 1.6576 -1.86958 2.71007 2.39309 2.39259 -10.7095 1.97819 -2.94627 
-6.77309 0.815329 1.60317 3.88206 4.41996 -2.88828 0.53296 -2.23462 1.27955 
1.10576 -0.294714 1.41688 1.29715 1.39041 -4.58792 -4.97143 -4.49803 -5.19544 
-5.42287 -1.24378 1.20924 0.659344 -2.07823 -5.63418 -6.22448 -4.42876 -4.79901 
2.60895 3.84406 3.31325 3.63355 3.37363 2.82706 3.15193 3.79999 -0.0746989 
-0.00164704 0.184971 -4.15153 -0.194296 -0.0730949 -0.185788 4.79461 4.55365 4.86725 
-1.56152 -1.20781 10.27 9.88312 -6.30662 -2.40879 9.84173 2.54066 -1.37348 
-2.18729 0.448827 -2.65747 4.67644 3.95959 -4.4976 4.13164 -4.27559 -1.99412 
-0.954808 -0.627173 -0.711372 -0.696243 4.44197 -0.783736 -4.65849 5.68944 8.4754 
1.24005 -0.968218 -1.78505 -5.3537 2.43829 2.19315 2.16972 0.449054 -2.51717 
4.41042 0.493191 0.393653 0.713238 0.82697 0.852094 -1.43601 -0.693457 2.28919 
1.14902 -1.29166 1.45753 0.857764 1.07769 0.0989593 0.618567 0.672598 -1.7707 
-1.84391 -2.22355 -2.08973 0.636731 0.771896 0.712812 0.750729 0.742031 0.779949 
2.79142 2.95123 2.91346 0.693795 4.90745 0.788134 8.15951 -1.4059 -1.35307 
0.082007 1.62199 0.994418 -1.47763 1.59563 1.64068 -0.667436 -0.826067 -1.38951 
-1.53576 -0.504713 -0.526869 -0.590608 -0.603392 -0.589919 -0.070155 -0.132861 9.40219 
8.48404 8.67869 8.84938 7.89437 7.34805 2.0313 3.42466 2.25859 -2.14747 
-0.14835 5.94198 -3.22795 4.5807 2.42769 3.84842 -3.15016 -1.48521 -4.28367 
-4.15431 -0.194709 -0.30313 -1.09803 0.169429 0.574713 0.529745 -0.880079 -1.03308 
1.77336 1.03843 -0.310752 -3.94032 -1.68106 -2.15014 1.92093 2.62631 2.19039 
2.05825 2.14893 1.73121 1.41972 1.05252 0.609865 0.490776 0.993431 -1.07546 
3.47794 -1.48511 -0.904352 -0.973335 -1.07408 4.59268 6.29939 0.173288 5.61526 
5.89028 2.44784 1.91149 1.88981 0.320277 2.01793 8.5594 11.3363 10.693 
10.2138 11.0356 -0.727183 -0.562956 -0.340407 1.95525 -0.521826 -0.722375 -0.754602 
0.00397385 -1.50451 0.251282 -1.67881 -1.71253 -6.96285 -7.05773 -6.71578 -6.18624 
-5.02115 -3.39779 3.35334 3.09823 2.98973 2.99683 2.77087 2.77797 2.27988 
0.886861 0.273785 -4.29899 -2.70559 -5.2951 -5.73399 0.532562 -2.19531 1.07191 
0.98277 -0.837346 -1.29461 8.31559 8.37856 3.63688 5.9087 7.68412 7.40281 
-2.78332 -1.9849 -1.56534 -1.1952 -2.20266 -7.46886 -1.49173 -1.58106 -2.00723 
-1.50188 -1.50519 -1.8514 -0.581614 -0.705331 0.550395 0.679624 1.83897 2.48625 
2.27463 2.4662 -0.967967 -0.978239 -1.00811 -0.813963 -0.331349 -0.142714 -0.0518285 
-2.23994 1.27193 0.495571 1.3462 2.41818 3.18076 -1.49174 -2.65757 0.46264 
-0.703187 -10.2412 -10.2753 -6.02865 -8.801 -0.922345 3.60103 -0.453652 -0.506868 
-0.610633 -0.142309 -0.638301 2.78954 2.96672 -1.00255 -2.03907 -1.66422 -1.35975 
1.38828 -0.612238 -0.67189 -0.944973 0.359815 0.559591 -0.898387 -1.00862 -1.38898 
-0.798289 -0.800889 10.8361 10.7225 10.808 0.439797 -1.88563 -1.82988 -1.81686 
-1.22496 -0.808912 -1.66747 1.68028 -0.716201 2.92007 2.70458 2.65977 2.76473 
1.40622 1.40313 -1.43601 -1.37534 -1.39548 -0.174265 -2.67838 4.49201 7.54609 
5.85928 -0.780849 -1.10156 -1.13373 -1.18084 -1.14866 -2.84792 -2.91771 1.30431 
0.517915 5.45448 -6.01373 9.52646 9.10829 9.14314 10.1932 9.49333 -3.30108 
-2.89084 4.43987 -1.28625 -0.640426 -1.76185 -0.883168 -0.379587 12.6922 10.44 
9.92066 11.9564 1.85943 8.18406 9.10859 4.55431 1.62399 3.47366 3.26074 
3.0533 7.56319 10.5834 10.6951 10.6891 10.5774 0.673381 0.660034 -1.99765 
-3.84927 3.1251 3.67422 1.35508 2.519 0.948807 -1.07414 -1.70355 5.16583 
-0.567646 2.12172 3.64529 -7.48609 -9.44288 -9.60789 -9.77306 -8.10949 1.62321 
-7.0858 -1.60951 -3.22415 -2.04242 2.02255 1.89135 1.78913 1.92933 1.82711 
-0.134108 4.72092 -4.95134 -5.03833 -7.28911 1.39695 0.993297 1.40496 -2.32465 
-3.22013 -3.43063 -2.07359 0.0609965 -4.85119 -2.67276 -4.0968 -4.3127 0.928523 
-6.71074 -6.71978 -5.43818 -2.16351 -9.90575 -2.7466 -2.64086 3.66135 -2.36003 
-1.7821 -1.8125 1.03751 -1.06292 -8.63101 2.32948 -6.9434 1.29744 0.277254 
1.59562 1.67894 1.66369 1.78761 1.84534 1.55333 -2.94059 1.39949 9.44081 
-0.308249 0.438576 -0.48903 3.50398 -3.7003 0.231476 0.992407 1.40059 -1.40278 
-0.549879 0.440028 1.09332 1.33396 1.11455 1.22407 -3.03917 -2.07647 2.88836 
0.749744 -2.68719 5.33689 6.20224 5.80827 7.66598 4.74684 2.98872 0.635385 
-1.72351 -1.99388 -0.473638 -1.22531 -1.24753 -0.314758 -1.25965 -1.13314 -0.509328 
-1.30002 -0.968628 -1.9279 -0.562829 -0.749519 -1.08006 0.0298257 -1.27491 0.861103 
0.445772 0.570407 0.510204 0.38557 0.375586 0.674314 0.913483 0.0402522 0.686412 
7.45064 0.68012 0.762552 -1.10878 -1.48377 -1.08 0.52375 6.49161 -0.169267 
-0.975064 -0.93411 -0.921621 -0.673639 0.107449 5.11988 -0.560989 0.241361 -0.56551 
1.12515 1.30276 0.448963 1.46893 -6.6035 -6.30207 1.64967 2.06289 1.17551 
-2.67352 -2.51027 1.8205 0.032396 -0.485174 -0.541886 -0.435355 -0.464792 1.41748 
-0.496894 -3.46097 -0.363894 -0.301529 1.09344 1.06057 0.96876 0.467138 1.04821 
-1.09547 0.0837975 -1.04288 3.47322 3.51728 -0.287808 -0.323076 -0.204249 0.501723 
0.579006 0.614609 0.670172 0.850787 0.864514 1.04651 -1.1692 0.30125 4.65706 
-0.520714 -0.836125 -2.39533 1.30057 3.51115 1.48921 -1.41999 -1.38898 -1.37443 
1.25109 1.52975 0.65642 0.813143 -0.0851299 0.910093 -5.62388 1.55523 1.84708 
1.8875 0.250715 -4.55665 -5.79252 -7.20905 -6.85681 -1.39683 -1.72011 -2.05335 
1.27226 -0.535276 0.448342 5.25076 1.267 -7.76863 2.52619 2.30761 1.91839 
1.85829 -3.07164 -2.10632 -2.4857 -1.52254 -2.69506 -2.46474 0.0317978 -0.0164054 
0.718471 1.29922 -0.98167 0.218895 0.823662 0.804155 -0.337882 3.7261 1.48895 
1.46245 0.600802 4.75634 1.458 -1.0743 -2.10334 -1.1525 -0.849455 -0.131208 
0.22123 -1.42384 -1.33792 -1.99282 -3.51894 -0.211647 5.95829 0.929101 0.90284 
0.670477 0.361697 4.76218 0.666092 -0.417955 0.31141 2.67137 0.262288 1.3055 
2.05334 -0.601562 1.59696 1.21262 0.459268 0.997335 1.17537 0.300626 1.33315 
1.1323 1.35421 -0.754805 -0.329604 -0.0447373 -0.575109 -2.06906 1.17293 0.36026 
-2.39274 0.33523 -6.36364 1.756 2.36422 -0.075357 -0.134561 2.27143 -3.18519 
-6.31511 2.5482 3.4848 -4.66022 0.494521 -5.88149 1.75682 1.37815 1.06676 
4.98215 5.42667 3.86724 -0.735962 -1.1481 -2.01018 -1.21764 -1.34232 -2.50883 
2.64378 -0.418201 -1.48726 -0.480876 -0.798955 -0.864518 1.81077 -0.00515226 -1.67949 
-0.753806 4.81026 -0.511556 3.89563 5.59132 4.21794 3.46932 2.34281 2.63855 
-0.0683095 -0.0966384 2.79008 3.50028 1.84797 -5.7708 1.85033 2.80509 -2.69079 
-0.868704 -1.17879 2.66925 -1.67189 6.17754 5.66075 0.175009 1.38138 2.20947 
4.85545 0.618071 3.75521 -7.81991 -3.47744 0.799835 -3.9641 -0.51857 -0.531803 
-1.05855 -1.44584 -0.454246 0.523434 -0.957534 0.702512 0.725349 1.34171 -4.08271 
-4.95234 2.45113 0.966556 1.00562 1.18036 0.638968 1.27079 0.80734 -4.03948 
0.124897 1.39024 1.38109 -11.3827 -6.52045 5.32181 1.27557 1.06706 1.27681 
1.5731 1.55885 1.12064 0.861806 -0.261497 -7.85158 -0.27417 -9.02397 -1.16214 
5.17959 2.12763 1.48666 1.18198 -1.1267 -1.21226 -0.778201 0.0882024 -1.50369 
-1.27179 -0.947706 3.0198 -2.32026 2.45699 2.54928 1.47433 -0.0559297 -1.7057 
5.29468 3.86439 -1.31199 -1.10867 -1.63596 -1.78575 0.439888 -1.75601 -2.24519 
-8.31347 -0.185461 -7.68191 0.886872 0.947005 -0.195517 0.581584 -2.21159 0.00441996 
-0.529431 -0.323656 0.654919 0.330456 0.268856 -0.000914278 -0.634346 -0.953652 -0.917532 
3.44814 -1.02034 1.02012 -0.284157 -1.53632 -3.70167 -0.069063 -0.326635 3.61529 
0.489148 -0.365373 -0.594407 0.506799 -9.33459 -7.31299 -7.80905 -7.94199 -6.29484 
-8.20089 -7.38104 -7.27656 -7.24055 -6.33901 -5.66265 -0.837641 -5.53582 -6.53843 
-0.775566 0.0316749 -0.902432 -0.959844 -1.18429 -0.944056 0.313885 -1.36743 6.75984 
-1.61472 -5.72339 -5.22224 -5.42408 -6.2457 -5.05895 -5.8653 -6.52487 0.0611719 
-0.829321 4.17315 3.77155 2.56263 1.69845 2.03479 5.35884 -10.4439 -2.11734 
2.32354 2.14877 2.34571 7.59785 -2.67499 4.73626 2.19215 1.46472 1.55205 
-4.16592 1.28216 1.33894 1.46596 1.3893 -1.98881 1.36699 1.73595 1.45656 
4.43671 6.71109 7.08812 -1.05921 6.14291 7.97064 4.52953 1.2017 2.64637 
-1.53528 -1.27526 -1.14587 -2.68988 0.407432 -1.72282 -1.90821 -1.79469 -2.05866 
-1.40932 -1.86568 -6.29354 -0.506227 -1.87536 2.16042 2.13762 3.02401 2.49036 
-3.71674 -1.06649 -0.613598 -1.59017 -0.583218 -0.739166 -1.59395 1.83178 -0.985088 
-8.50746 1.13126 5.93685 1.78563 -0.119872 1.5512 -0.122176 1.22142 0.0666981 
2.22612 -1.07379 1.40879 -5.95078 1.20623 1.76324 4.55527 1.55642 4.39701 
4.92044 6.27703 -2.40758 4.99055 1.53761 0.962895 0.982649 1.34072 1.31625 
1.37891 1.36654 1.54213 2.19839 1.42897 -1.039 1.42346 1.43891 -1.05349 
1.47338 1.22603 1.3045 1.42126 -0.930782 0.39036 -8.54616 -1.8903 -1.80026 
-1.54585 -0.87081 -1.67886 -1.43754 -1.00314 -0.825795 -2.25743 -2.24951 -2.05949 
4.26807 -1.0575 -0.74851 -0.793315 -0.615695 3.79587 -1.0392 -1.46379 1.19102 
0.0511118 -0.560934 -0.502774 -1.80174 -1.87513 -0.590477 -1.16644 -1.56022 -1.32476 
-1.63131 -1.8344 -3.2918 -2.84048 -1.75029 -1.93962 -2.1126 0.196261 -3.43294 
2.6932 -0.855141 5.23911 6.5871 5.01898 5.34452 2.20767 4.02766 4.53332 
6.04498 -1.17955 -1.55825 0.254836 0.235441 0.405398 -1.82403 -1.73984 -0.790225 
-1.20046 -1.17296 -1.23807 -1.11556 -1.28321 0.695421 3.2099 -1.84773 3.96146 
-0.0213845 0.563783 -0.270562 -1.11848 -1.09427 -0.269767 -0.227318 -1.33072 -0.217262 
0.00193412 -1.49885 -0.565838 -1.33182 -3.29766 1.52687 0.0191875 1.17216 2.16621 
-3.14141 -10.4598 -0.306589 0.851519 -2.03953 -1.22798 2.77356 -0.771375 0.741258 
-0.809819 -0.886342 0.134066 -2.45343 0.402283 -1.10302 -0.661486 -1.17933 -0.986422 
-0.840591 -0.643634 -0.495577 0.254539 0.251666 0.133531 -0.815029 -2.36044 -2.68853 
-5.85514 -3.95449 -3.61131 2.5193 1.67071 1.3051 -0.10683 -0.121771 -0.173711 
-0.188652 2.20724 -0.423178 1.11691 1.37278 1.07728 1.22964 0.561555 0.792707 
0.591493 -1.84683 -6.04258 -4.62043 -6.902 -6.6474 -1.85324 -4.96928 3.1758 
-5.03438 -6.0336 -0.946938 -1.47453 -0.927647 -1.29723 -0.659972 -1.26123 -1.58522 
-1.46371 -1.55018 -1.70469 -1.61452 1.16271 -1.34341 0.946439 1.41669 -1.41299 
6.2702 0.291967 0.877597 0.714997 2.93694 1.49974 1.07878 0.384726 -5.41504 
-5.91282 -5.74271 -6.24049 2.27234 5.62124 -6.28416 -6.78194 1.11234 1.40746 
1.43369 1.0688 1.36656 1.16876 1.44578 1.50493 1.41376 1.61483 0.327718 
-3.26061 -2.13013 -3.24732 0.880501 -4.25586 -3.54747 -6.45776 -5.63929 -2.91835 
-3.28437 1.95999 1.49964 1.4425 1.35199 1.5248 1.69503 1.78517 -1.67924 
0.808776 -1.5212 -0.272265 -0.784516 -0.212125 -1.08636 0.0316409 1.06559 7.94636 
1.74783 -0.216932 5.92751 2.52087 8.87122 -6.42954 -0.822793 -0.837909 -0.00737083 
-0.691086 -1.23165 -3.47296 -1.55079 -0.180288 -0.533577 -1.71441 -1.45623 -2.05558 
-1.853 12.7441 -1.77389 -1.78056 -9.07378 -0.989342 -0.609794 -5.72196 -2.88892 
-2.5308 -2.51056 0.63875 -8.55255 2.49359 -0.107912 0.227266 0.0887446 1.09031 
0.625388 1.79096 2.11922 1.3791 1.4273 1.38532 1.15402 1.1109 1.19156 
1.49328 1.83679 1.4779 -2.22094 -1.26814 1.16304 0.978818 0.601439 -0.531658 
0.939143 -0.200189 -0.891142 -0.257133 -0.67796 -3.37619 -0.259415 -1.17111 -1.38961 
-0.372496 -1.06428 -0.820595 -1.11632 -0.96416 1.71081 3.09319 1.69773 1.63397 
8.13661 -0.341351 -0.376667 -0.445555 1.06254 -4.85238 0.0617981 -0.0194941 1.26696 
1.332 1.4205 -1.38614 4.97024 -1.01214 1.86725 0.0531008 1.34012 -0.064379 
0.644065 -4.7422 0.550334 1.83524 0.0260569 0.442645 -2.42386 0.1286 -0.160207 
1.4014 6.95622 4.09464 1.4985 1.64599 1.67637 0.0547502 1.13281 1.42296 
0.202004 -2.29051 1.15726 0.458902 2.64818 -5.81858 -3.52303 -0.425047 3.67732 
2.95367 2.27429 0.66251 -0.0894977 -6.48399 -8.22875 -7.09791 0.80198 0.878105 
0.55182 0.874603 0.909368 0.408638 0.238851 0.0663341 1.19097 -0.0894558 -0.254671 
-0.666316 0.746755 0.159295 0.00350466 0.183207 0.757296 0.65599 11.8391 0.0999114 
9.84122 -1.8049 2.61487 -1.10831 -8.22871 -8.25021 -1.19474 -0.224443 -1.40468 
2.31808 -3.0574 0.348693 0.329003 0.682152 0.510164 -1.08288 1.38299 -4.48176 
-1.2129 -0.407844 -1.43823 -2.88328 -1.54279 1.50491 1.52494 -1.60201 -1.75084 
-1.69743 -1.42086 -0.479972 -2.05456 -1.78946 -1.32679 -1.30363 -1.83014 -1.87932 
-0.746121 -0.511726 -6.95223 -0.485018 -0.425141 -0.430227 0.673673 -0.00482196 0.0698894 
0.27532 0.540393 -0.64714 0.0698457 0.569879 0.152209 1.07683 0.0662724 -0.360841 
-0.0177411 -0.526579 0.0537566 1.03333 0.824877 1.01304 0.745047 0.782715 -0.457795 
-6.35001 -1.9604 -1.93843 -6.34506 -6.40153 0.228453 -1.5335 0.926821 0.944175 
0.550098 1.10073 1.03068 0.0121624 -6.11475 1.26741 6.24876 -3.80053 0.973173 
-0.24154 0.188137 1.49063 1.59041 1.33442 1.33821 -2.58883 -1.78357 -0.995093 
-1.31601 -4.48355 -0.0866233 -1.69166 2.30274 -4.22288 -5.78808 0.570798 -1.49811 
2.13403 -0.0662096 -5.40933 -1.15233 -1.42487 0.808592 -0.718646 -0.11695 -0.190752 
1.19667 -0.00189864 -0.0391821 -0.0779345 0.163813 -1.88031 -3.51889 -0.399115 -4.00671 
-0.412838 0.224973 0.774834 1.18412 -3.60063 5.97835 -2.18044 2.12142 3.22675 
3.77774 3.60968 7.32015 5.5701 5.92948 6.51613 3.34718 5.12034 6.55508 
4.78192 -6.9107 -6.70545 -5.71731 -2.57255 -0.519042 -0.344496 -0.338896 -0.649479 
1.63327 0.0126962 -0.934675 -0.653694 -3.23134 1.06964 -3.66504 -2.0571 -3.46983 
0.610323 -7.95008 1.37501 1.62792 1.17122 1.75057 -2.1202 1.65129 1.86949 
1.83386 1.97009 0.953515 4.55036 1.34826 -0.220568 3.9092 0.126464 3.95326 
3.62012 -0.44292 0.231183 -0.000213295 -1.1036 1.50793 -2.09159 1.5881 2.02393 
-0.503829 1.79587 2.65941 -0.970139 -0.938267 -0.949769 -0.351656 -0.4686 -0.969498 
-1.43176 5.51057 2.6414 4.89188 -1.95808 -1.31559 -0.207566 -1.4696 1.84977 
-1.72842 12.5984 2.60273 6.30588 8.59477 -2.48336 -2.83559 -2.82763 0.623752 
0.715742 -3.47879 0.663752 1.20629 1.64552 0.529738 3.20359 -7.43277 -6.03065 
-2.20692 0.0118051 0.534821 -0.133889 -0.126052 -0.12538 -2.2019 -1.5178 11.6934 
-1.52498 3.13716 6.71109 -0.594907 -1.56944 -1.28197 -1.442 3.22073 3.62697 
3.71054 6.47655 6.3293 -1.85837 -1.98201 -2.03617 1.45898 1.48874 1.22059 
1.30908 -3.48261 2.108 2.08203 7.33923 2.40593 6.02603 0.10179 4.31007 
-1.34049 -0.730157 2.06662 -3.44272 -0.525155 -0.585611 -2.6219 -2.90764 -2.88969 
-0.964228 -2.70611 -8.48596 -0.84367 -1.08597 4.2592 -1.38194 8.43464 -2.82277 
-0.849648 -1.05838 -0.852011 -0.916508 -0.902275 -1.33695 -1.07263 -0.980026 -0.349571 
-4.67889 -1.68395 -4.7334 6.96289 1.12856 1.77821 1.09931 1.76163 -1.57001 
-1.67599 -1.73864 -1.687 -1.86352 -1.91594 -1.74384 1.72403 -1.45298 -0.0241106 
1.3433 1.21337 1.5739 -1.80566 -1.93909 0.314783 -1.31324 -0.766958 -1.39818 
-1.88066 -2.05102 -1.68603 4.29858 -1.75707 4.25625 -4.29265 -0.439173 -0.841443 
-1.01996 -0.638126 0.612746 -0.987761 -0.871288 -1.39181 -0.691532 -0.615479 -1.37899 
10.5002 1.13325 2.24787 -0.844799 -0.450569 -2.01671 -0.963261 -1.93991 0.748348 
0.984603 1.05914 1.05373 2.73675 1.19705 1.33962 3.54547 5.04864 5.26994 
5.48271 4.28224 4.33949 8.218 2.44654 -1.32813 1.82976 1.86885 1.84993 
1.88902 -5.15611 2.72316 0.33205 0.320427 -0.309568 -0.312985 -5.48926 -4.07929 
-7.29063 -3.88336 2.60001 -6.56314 0.677444 0.30502 0.697258 -1.11208 1.36736 
0.577642 0.965374 7.09418 -5.68795 -5.68964 1.65018 1.60393 1.47988 1.43363 
-2.14823 -1.68374 4.00837 4.8337 3.94522 -1.98585 0.437649 -0.607735 -0.54164 
-2.1137 -2.53354 -1.64196 -3.28043 -2.42483 6.79319 -1.64441 6.20933 1.29455 
0.883999 -0.459066 -1.54557 -0.491348 -0.937552 -0.551437 -0.560558 3.63965 1.15222 
4.28078 2.27564 3.94647 -1.35803 -1.31138 0.470874 0.588249 0.848653 0.139002 
0.853526 1.05099 0.657981 0.557304 0.515768 -1.05738 5.29088 -1.85544 -1.78202 
-2.04705 -1.84783 -1.89928 -1.64238 3.16173 2.17961 2.27636 3.56125 -0.581048 
1.93992 -3.58284 -3.95657 -2.6551 -3.69356 -2.03968 -3.67574 -2.63364 -3.08178 
-4.22897 -4.28941 -3.906 -0.389605 -5.32766 -5.44157 1.36193 4.27891 10.0076 
-3.14765 2.78275 -2.19412 -0.785164 -0.471614 -2.20027 -2.25627 -0.979669 -1.13691 
-0.830485 2.79909 6.78067 -0.320251 0.424041 5.48005 1.26813 0.949259 -0.296283 
0.832296 3.20201 -4.58488 4.6583 3.27526 1.9973 0.755913 1.94594 1.21303 
1.3706 0.1738 6.40771 0.847292 0.783322 0.878646 0.0507136 -0.296768 -0.882769 
-0.532705 -0.858554 -1.28087 -1.33815 0.235855 -1.35867 0.529571 0.959759 0.317226 
-4.69705 0.0698607 -6.7104 -4.37262 -4.23787 0.241615 -4.05873 1.88321 0.163455 
-1.20559 0.150109 -5.64053 -2.5949 1.39796 0.915885 -4.16001 -1.6999 0.112731 
-2.62671 -4.16523 -0.51237 3.68382 3.67545 -1.06904 0.253657 0.151133 -0.115484 
-6.2584 6.46068 -0.0303576 -0.0241113 -6.61666 5.55484 -0.777425 -0.325471 -0.506233 
1.57939 -1.79038 -5.60818 -1.83419 -5.09932 -0.543068 -5.14314 5.0234 -0.328778 
-0.897105 -2.71688 0.682389 1.08964 0.852406 -8.68174 -4.41821 -0.861106 0.295947 
-2.06487 -1.3282 4.31323 1.91102 -4.04001 1.99478 1.84148 1.07635 6.09076 
0.0129535 5.17765 5.54757 -3.42614 -0.316246 -0.0561842 -0.598873 -0.793545 -0.366292 
-0.270327 -0.257387 -0.186965 2.14945 -2.48978 -2.23377 -0.940542 1.42417 2.27449 
1.24595 -1.49105 1.1207 -0.511267 -1.17592 -1.35645 4.21031 -0.925109 -1.98459 
-1.56221 -1.16365 -1.2472 -1.58511 1.71744 -2.12127 1.39943 -0.0441945 -4.50696 
-0.375179 -3.50262 -0.012912 0.225155 -0.488564 1.06163 1.0777 -0.652736 0.256357 
0.715084 0.880519 1.10148 0.47187 1.22881 1.04557 -5.09274 1.1966 1.3538 
-1.08543 1.27795 -1.6269 -1.7438 -1.82444 -1.59247 -1.69033 -1.8054 -5.49362 
4.66537 4.33983 4.11236 -0.480871 -0.286553 -0.368398 -0.354861 1.26688 -0.0338779 
-1.45061 3.64021 1.60264 1.50608 1.43397 1.49485 -4.29612 1.77405 1.63781 
-0.386893 1.42419 -4.457 -7.44281 -7.19983 -2.04552 -3.43053 -5.4675 -4.33147 
-5.54311 -3.83723 -0.749651 -0.86041 4.46292 -0.975714 -0.680357 -0.780238 -0.713772 
-1.35208 -2.28877 -2.21217 -1.80205 -1.82001 -2.43544 7.22328 1.14306 -0.172542 
-1.40638 11.5417 1.51738 10.7457 -4.0392 9.91827 -1.26593 -1.40997 0.85504 
0.492132 -1.05619 -1.51463 -1.4051 -0.508131 -1.21101 -1.00883 -1.0497 0.382702 
1.84882 1.25494 1.43059 1.39098 7.8573 -2.72787 4.19208 -4.20449 -3.26999 
-3.1413 -0.907632 -1.18131 -1.42042 -1.40436 1.10935 -0.129802 -0.216268 2.22903 
-0.518779 2.26463 1.55573 -2.4685 0.705659 3.6884 1.22366 1.75198 -1.11634 
2.63772 1.91343 3.15447 2.98081 -1.13649 -2.1492 -0.795219 -0.149576 -0.624842 
-0.384847 -0.939326 0.125982 0.669083 0.21428 0.809673 -1.79553 1.90606 2.96655 
-0.547673 4.60214 -0.656155 -0.673155 -0.494465 0.409061 1.30984 -3.60049 -2.07694 
4.08048 -1.54356 -1.76619 -0.968954 0.482081 0.488069 0.4733 0.479288 -4.4996 
-3.97332 6.28603 -0.820596 1.5323 1.79013 0.327443 1.5083 1.30738 -4.70166 
1.42278 -3.62989 1.67258 -2.91946 -2.95838 1.75469 -4.83109 5.68187 8.93773 
6.18494 -4.53697 -5.49094 -3.31261 1.9245 -3.50705 -8.0705 -2.75036 -7.65287 
1.2018 2.77675 4.66572 1.04063 6.02805 -5.97849 -3.7902 -1.96144 0.852562 
0.201909 -0.647856 0.364277 2.10513 1.11511 2.21225 0.31191 2.55045 1.77196 
2.78106 2.45579 2.84421 2.9025 2.13957 1.11832 -0.0760291 2.48138 2.91405 
0.702201 -0.0704679 -0.214061 -1.51842 5.69518 2.46225 3.81848 -1.84854 -2.70757 
0.222192 -3.12944 1.15887 2.45495 0.532124 -0.100429 -0.100456 -1.18586 -0.64626 
0.10388 -1.96096 1.20104 2.49575 -2.66401 3.74781 2.02631 0.996419 1.15896 
1.28385 1.1654 1.29029 -0.978381 -1.25884 -1.2207 -1.31339 -1.0955 6.67357 
-1.22673 -1.80371 -1.8594 -2.036 -1.94981 -1.99081 -1.9086 -1.99696 -1.30903 
0.0895787 0.266773 0.452412 -0.425153 -2.28228 -1.95752 -0.522812 -0.981766 -1.46914 
-0.531933 1.40335 2.8828 1.38308 -1.39996 -4.11437 4.65981 -1.57369 -1.55283 
-5.92469 -4.05237 6.26896 6.92609 -0.521919 -4.29981 7.51889 0.661891 4.76221 
1.70735 2.295 4.63434 1.65683 0.0377252 5.06524 2.31982 2.34366 2.26225 
2.39429 -4.1774 2.13684 0.569008 -7.62643 -4.13677 0.718842 -0.855659 -3.38521 
1.40754 1.79935 -0.18936 -0.645035 -0.395353 -3.70631 -1.30825 -1.26708 -1.01606 
-0.80605 -0.816928 1.6693 1.81075 1.77512 -4.5991 -5.04522 4.97256 5.45773 
2.15268 3.53553 4.04138 5.56267 4.78569 4.81837 -1.11749 -1.22706 -0.473273 
0.175913 0.580181 0.521591 -0.833246 -1.34725 -0.942818 2.1246 2.10935 1.27709 
1.64417 2.06645 2.08381 1.58636 2.48722 2.26332 2.35443 1.82611 0.590967 
1.34154 1.4809 -2.55359 0.608118 -5.13992 1.8351 -6.70653 -0.154014 -0.147843 
1.74439 1.70269 2.06694 -0.325291 -4.91767 -4.68033 -6.65348 -5.88288 -5.42451 
-0.41169 -5.73252 0.438332 -7.47371 -0.341519 -0.743083 -0.399211 1.74486 2.21699 
1.91295 1.63956 1.56692 2.57104 2.52041 2.64379 0.976321 -0.971759 -0.0486353 
-0.828581 -0.479358 -0.295632 2.17826 1.41705 0.172888 4.5256 0.473467 1.25231 
-0.55777 4.4456 -1.82804 0.956333 -0.359865 -2.52731 4.96409 5.85303 -0.394691 
-7.36826 -2.19032 -2.13427 -2.31087 4.93137 -0.348889 -2.92395 -2.96621 0.798911 
0.723332 0.976033 1.17163 1.13179 -2.13608 0.292055 1.34938 1.06192 -5.16194 
-0.801098 2.44722 -0.204588 0.270682 2.15069 -3.51607 -4.42484 5.98627 5.2377 
1.67543 -2.73424 0.408511 -1.11457 0.180299 -3.15518 -0.211965 -2.33372 -0.303481 
-0.551635 0.0724573 -3.63266 -3.61722 -3.32734 -2.98844 -0.281011 -0.223214 6.69664 
-0.461502 -0.110664 1.01333 1.38932 1.45471 0.847587 1.43694 0.910619 -0.0738881 
-3.74796 -3.81864 -3.86028 -0.584672 0.179764 1.32979 0.292042 -3.28746 -3.91533 
-3.55926 3.66517 3.29394 2.00053 2.49929 2.76503 2.55119 -1.2514 -0.228439 
-0.621249 -0.764096 -0.613077 -0.696343 4.50602 3.51672 -1.83605 -4.87233 -4.90655 
-6.2782 -0.744133 2.05389 -1.59818 -1.69231 -1.80436 2.10517 -1.81035 1.09781 
-1.71815 1.4022 -5.85482 -3.37316 -6.55299 0.98222 -3.12678 1.49666 1.35131 
1.8577 -1.35963 1.89204 1.76279 -2.25293 -1.89646 -2.12121 -2.24727 -2.17892 
1.09204 10.4401 9.19369 1.08799 10.975 2.14233 0.180022 -4.21254 1.47644 
1.38817 1.29379 -5.0431 4.75144 -0.344699 0.552559 -1.47111 -3.17169 -1.59303 
-3.20893 5.03644 2.896 5.57926 -0.434085 3.86371 2.32279 -1.37641 -4.87569 
5.80308 0.394878 9.99578 1.18796 0.41301 0.398581 -0.684658 4.3891 -0.621384 
-0.544291 4.52832 -1.09842 -1.22965 -1.20911 -1.07788 -7.91747 -10.6936 0.730442 
7.55242 -1.80373 0.0772858 1.98432 2.37495 1.09246 1.0799 -6.15883 -6.00517 
2.17069 0.989691 0.0829988 -1.51765 -1.12186 -2.19915 -0.79808 -2.56508 -0.801884 
-0.951962 0.0990918 -1.5796 -2.82217 -6.16819 -3.10003 -3.16645 -2.94784 -2.7182 
-2.42765 -2.85808 0.063362 -1.67305 -1.60573 -0.835646 0.271922 0.824722 -3.37698 
1.73171 1.19095 1.45357 1.85792 1.22019 2.1197 -0.511478 0.285519 0.142594 
0.733179 0.379544 0.515829 0.508836 -1.51606 -1.17622 -1.53292 -1.62897 -1.48257 
-1.54602 1.42432 2.04377 -0.488479 -1.43337 0.087545 0.139102 -0.0468845 0.695762 
0.697789 0.650659 -0.894116 0.493974 -1.65001 -1.53781 -1.45527 1.03506 1.51497 
1.44673 1.43178 -4.21542 -3.43398 1.61304 -5.32286 -1.11129 -2.75682 -10.1897 
-4.1043 -4.79352 -4.63348 3.66419 -4.92008 -4.13125 -0.628113 0.866104 0.00583196 
1.52127 4.91463 -0.703248 -1.23753 -1.01319 -0.719746 -2.11334 -8.0225 0.110857 
3.03785 -0.264107 -0.0643567 -0.0681495 1.20122 0.105871 1.2303 0.925262 1.07186 
1.40121 1.48068 1.29915 3.15119 -1.21165 1.76671 -0.839754 -0.839832 -0.268192 
-0.874399 -0.195918 -1.04193 -0.212683 0.0192012 -0.036308 -1.85303 -1.15814 -1.44032 
5.72368 5.85075 3.24415 6.65935 3.23226 5.38234 -2.54718 -2.7347 -3.03253 
-2.84502 1.73551 -0.257566 0.307095 -2.67252 -2.97797 -0.484279 -0.324448 -3.83672 
-0.304027 -1.0176 -2.14686 0.609521 -3.02079 3.79275 4.63023 5.15492 1.45928 
0.856157 1.84084 1.27442 1.45724 -2.87776 1.16759 1.39651 0.722013 -0.243202 
0.223902 -1.69157 -0.00297132 -1.02222 -1.34258 1.72926 -2.38797 -0.930093 -1.24797 
-2.34754 -1.5294 -1.45411 4.45763 4.4153 -1.99077 2.97751 2.8049 -5.32918 
-5.32076 -5.08944 -1.65223 -6.16305 -2.05099 -4.82698 -4.91831 8.9021 3.41361 
-1.1226 1.22039 6.5975 0.19588 0.182034 0.129789 2.48432 -0.70646 -0.556638 
-1.35389 -1.29939 -1.26014 -0.669019 -0.795979 -0.679332 -0.843939 -2.0434 2.62998 
-1.3606 7.29008 7.55528 3.66499 -5.14249 -0.377107 -1.23004 -1.04197 1.09803 
2.63189 -0.783782 0.75008 1.09159 0.889412 1.16873 1.12645 3.2438 1.93829 
3.00131 0.357519 -1.54089 1.6958 -4.6542 -0.346262 0.342258 5.1485 -0.758712 
1.59026 0.364438 1.19031 0.535526 1.70329 1.30602 -3.90383 -1.7519 -1.59986 
-1.94404 0.441499 -0.917758 -3.53766 -1.12999 -1.99203 -3.86185 -1.11286 -1.95915 
-1.84528 0.652687 0.571289 -0.348115 -0.216214 0.202245 1.4938 0.115944 1.50138 
1.33706 1.51631 1.9808 0.22574 1.44757 1.77772 0.310798 -0.17767 -4.28042 
0.277438 -0.738164 1.40837 1.00577 0.660704 -0.666938 -0.140399 3.29927 -3.67199 
-1.23275 1.15724 -3.35389 10.2413 0.546571 1.88257 5.67877 1.40789 0.153275 
-0.973097 -1.05971 -1.05934 3.76298 3.90546 -0.841254 -0.56943 -1.2193 -1.38599 
2.61773 -0.915487 1.12398 -2.25968 -3.40323 -1.48053 0.988399 -1.21825 -1.09546 
-1.47194 -1.50304 -1.45563 5.73693 5.4851 4.24481 -3.25119 0.148501 1.80895 
1.7452 -0.469571 1.68774 0.369135 0.520745 0.458141 4.36019 0.169546 1.31307 
5.03868 1.33033 1.38998 1.44544 1.34718 1.0081 1.63044 1.44203 -0.415438 
-1.56091 -0.47346 1.53319 -2.65606 2.90419 -4.92886 0.990265 -11.4394 2.69597 
3.98645 -8.32015 -6.17752 -7.13149 -2.44697 -2.50969 -2.12729 -1.99385 -1.86208 
-1.63961 -1.66498 2.51254 -3.43335 -2.722 -3.14757 1.412 0.348558 0.372053 
0.296782 -0.484382 -0.540581 -0.563785 -0.397834 -0.488271 2.95987 -0.866639 0.815009 
0.0380887 -0.157549 -0.678343 -0.482706 0.859137 -1.55358 2.06377 2.03225 -1.42474 
-3.61563 -3.2267 7.54298 5.00492 5.19349 -1.73953 0.878875 -0.117453 0.361859 
0.303231 -5.23382 1.03435 2.07413 5.94397 -8.84178 -0.649426 0.412002 4.32292 
0.526791 5.00141 -0.026025 -0.986302 -1.13881 0.0746373 -1.14468 1.92294 1.71942 
-0.247432 4.70028 2.98473 4.51412 2.82177 -4.25888 -0.443995 5.42433 4.98521 
5.35818 10.7506 -1.99352 -1.97855 -1.07992 -0.801495 -1.5645 -1.51396 1.1858 
1.13955 -1.30061 -1.34161 4.27076 4.93734 4.11171 6.3283 0.963393 0.114145 
0.39551 4.1382 1.49413 5.51572 5.46601 5.86227 5.81256 1.58714 -1.77088 
-3.73035 -3.22975 -1.60706 -1.79258 -1.94945 -3.0445 -1.53922 -1.63836 1.27397 
0.1003 -1.29625 -1.36741 -0.312772 -0.390055 -0.697544 -0.847054 -0.559074 -4.75277 
-0.261534 -0.621691 -0.115878 -0.596239 0.0764703 -0.371179 -0.139485 1.62949 0.282806 
-1.82185 -0.419127 3.76696 -1.62944 1.82401 0.286508 0.631149 4.62848 1.75856 
1.66322 1.37424 0.643642 1.2962 -1.46655 -1.09478 -1.13578 -1.33662 1.51161 
-1.14648 3.71456 3.85704 1.17724 1.41923 0.142821 -0.767269 -1.63326 -1.49942 
2.13419 10.9203 11.1658 1.74205 1.67849 1.78415 0.963699 -1.4644 2.80857 
-1.74548 -1.46968 -2.08988 -0.667115 -0.491336 0.123515 -0.518956 -0.663627 -0.283558 
-0.737135 3.12666 -1.03265 -1.33229 -1.19326 -1.0347 8.28657 8.26367 0.236215 
11.2575 11.5031 0.621537 0.61754 1.52778 0.844274 1.61588 0.936617 1.46541 
-9.37531 0.577163 0.0409273 0.133697 -0.151804 -0.322463 -0.0369612 -5.36104 0.318546 
-0.824619 0.306009 0.289975 1.33003 1.62235 2.09826 2.18534 1.95186 1.3599 
-0.55037 1.71395 -0.551578 0.506204 0.279721 0.26257 0.309345 0.326496 6.73679 
6.41409 -5.24125 1.59582 1.56125 -0.457411 -0.461301 0.0212708 1.24536 1.46295 
0.00632998 -0.679493 -1.18472 -1.37048 -1.5788 -1.22932 0.371444 0.660651 0.480725 
0.283456 0.234444 0.360348 0.16308 
METADATA
INFORMATION 0

STRESSTENSOR_XZ 1 15232 double
0.672033 -0.336029 1.0054 1.48436 -5.40416 0.888083 9.28976 -1.21599 0.217741 
-2.7193 1.35293 -0.0713349 8.12018 0.531321 -4.1495 0.253876 0.0935467 -2.08978 
0.190709 0.352553 -1.87401 0.111244 0.25452 -2.16434 1.43917 -2.82718 2.66127 
-2.80392 0.586915 0.518259 -1.9517 0.70773 -6.88055 0.337465 -0.437648 -0.0981277 
-0.1083 -8.22085 -0.499502 -0.0107202 -7.36406 0.981238 -0.170919 -0.480978 0.510211 
-0.359103 5.17049 -2.40237 -2.05206 -0.399432 -0.157386 2.13206 0.922853 0.484382 
4.21146 0.206353 -0.113667 -4.06288 -0.0932651 -0.704481 -0.212914 -1.6288 0.269756 
-0.126921 1.46886 5.05809 0.190981 5.36172 -3.96494 0.0022343 1.89076 7.661 
-0.189717 -0.170229 -3.01396 -3.33015 -0.447358 -5.62571 -7.05601 3.62023 -4.19966 
0.812722 0.525756 0.232298 -0.223264 2.20419 0.197267 -0.290283 -1.08009 4.38989 
3.33018 0.940197 2.70628 -2.88977 2.73942 -0.387314 1.94607 -0.0919974 3.2767 
0.401361 -3.61054 0.381458 1.27962 2.2601 7.2804 3.22736 -3.93978 0.705743 
-0.45471 3.74094 1.80084 0.0793034 0.878789 -0.917919 1.9016 3.42656 -0.367993 
0.241179 0.307434 -0.491958 -0.160471 -0.343367 0.0225084 -0.573822 -0.335069 -0.194226 
-1.35803 -0.443889 -1.87389 -2.40118 -0.011915 0.301758 -2.00711 -1.71523 -1.4126 
-0.861296 2.53097 0.293536 1.64836 1.44475 -0.622686 -1.35686 0.237044 -0.279661 
1.93079 -3.02049 0.580987 2.14901 0.903459 0.277314 0.236586 -0.17188 -1.29655 
-0.228816 -2.15169 -4.70829 -1.74347 -4.88108 2.10587 0.506158 1.43675 1.62122 
-0.283056 -0.152753 -0.320946 -1.24814 -1.41456 -1.44792 1.02611 -0.321244 -0.162399 
-2.24013 -4.35277 0.723399 0.165847 -0.202671 -1.22644 -4.49689 -0.759952 -0.273092 
0.112084 0.559173 -0.669492 -1.76806 0.65857 0.396477 7.56593 7.47992 -6.14019 
-1.95802 -4.87782 -0.419692 -2.47484 -1.65392 2.96463 0.872839 -0.122924 1.37579 
0.516739 -2.25957 -1.11238 0.132428 -0.202602 -0.70003 0.63959 -1.38282 -1.10875 
-4.69211 -1.8243 -3.34582 1.7145 7.09839 0.300258 3.01723 -0.0560265 -0.298806 
2.76314 0.941868 0.41935 -0.192182 8.68871 -7.06606 -4.75084 4.05282 -0.863908 
-5.92099 -0.308378 3.06178 -0.322853 -0.729521 -0.0405812 -0.325627 -0.036128 -0.103512 
1.56975 6.1024 1.01273 -0.179878 8.30647 -0.134092 -0.114906 -0.0359905 2.33448 
2.09447 -0.200332 6.66792 0.32843 1.92741 -4.81167 -1.10306 0.0561623 0.317962 
0.916869 1.26525 -1.15589 -0.0193384 0.163092 0.131083 0.132766 2.03287 0.94439 
-0.536592 1.54976 -8.44437 -0.207813 -0.157479 -0.235554 -6.18282 -0.885652 -6.09308 
-7.3188 1.60827 0.432152 -5.25919 -0.621649 -1.56879 0.308701 -1.10016 2.63572 
-0.4132 0.271321 2.13095 5.39871 -0.167887 -0.20422 3.90976 0.468709 0.81869 
0.641917 -6.55062 -0.104441 -3.69772 -4.81601 0.0894007 -0.346217 -0.167704 0.0331169 
-3.43312 -3.4781 0.178418 0.13479 2.10636 -1.06539 0.338762 -1.94026 0.211605 
-2.5984 -0.73866 0.46524 -1.17556 0.537273 0.575361 0.661792 4.77612 8.31661 
-4.94117 -0.663305 -1.13135 0.294002 0.901746 0.871734 -0.0170159 1.47878 2.31381 
0.950598 1.91411 -2.48737 0.142468 -1.02152 -0.0514193 0.491228 -0.362744 2.48603 
-0.712159 -0.331108 -0.185972 -0.54111 -0.345633 -2.04509 -0.247849 2.53726 -0.585822 
-0.691434 -0.183637 0.229809 1.52263 0.457884 0.211762 0.263415 -0.178039 -0.258396 
-1.37202 -0.183238 -0.564144 1.03813 1.5259 -7.68795 2.48388 1.97916 -0.891216 
-0.8223 -0.56927 -1.07972 -0.363325 -0.193312 -0.404345 -0.830523 0.14543 3.17939 
2.89785 0.655594 -1.6605 5.53537 4.06736 7.29179 8.42238 -2.2474 -4.07341 
4.18768 3.12189 -5.30809 -4.73059 -0.402529 -0.598224 -0.312979 0.644853 0.534801 
1.58411 0.458541 -0.263657 -1.42484 -2.45462 -0.614295 7.35971 0.57227 -0.379076 
0.684574 -0.705459 -0.660487 -0.0958047 -1.36659 0.59675 0.959194 0.254441 0.710337 
0.193727 1.23004 1.05812 2.51907 -1.70224 1.97368 6.11648 -0.342162 -0.480346 
5.90993 -5.13291 -0.505054 0.463472 -1.32515 -1.67042 0.280772 3.77241 -2.63111 
0.287437 0.45636 1.10352 0.316716 0.00876382 4.78698 -0.279196 -0.928185 1.17511 
-1.02667 -0.701083 -0.30591 0.940304 0.266044 -0.0854228 1.11005 2.35938 -1.20238 
0.812321 0.00323581 1.43629 0.135359 -0.455186 1.62945 2.28172 4.09953 -0.0110804 
-7.27916 4.74163 -1.44466 0.594066 1.48473 -0.378106 -0.33359 0.152159 0.00769048 
-6.42401 -0.264818 -0.09059 -1.36628 -0.172898 -0.173935 -0.196027 -1.98027 0.526403 
-4.18643 -2.02108 -3.25948 0.363679 0.0904277 2.02323 2.16283 -2.25069 0.377428 
2.94306 1.78467 -0.447288 0.161763 -0.341625 -1.10136 6.71832 8.16741 -0.474509 
-6.06656 6.93282 2.87257 -2.47688 0.860522 -0.45496 -1.49199 -1.16239 0.607431 
0.472789 0.66163 -0.57421 1.1901 0.328976 0.140804 -0.118156 -0.701815 0.079901 
0.873907 3.82156 0.782858 3.42041 -0.829376 1.31373 6.22007 3.74932 3.00744 
1.81316 -1.95307 -0.227005 0.507586 -0.718904 -0.59532 -0.276272 1.13803 -0.974759 
0.0984897 -0.386097 0.231384 -0.213696 1.61867 -0.335932 -5.19622 -5.49026 -2.50366 
-0.0219358 0.259246 0.272645 0.637334 0.236992 6.93974 -0.340533 -0.267457 -0.159204 
-0.211386 0.889452 1.67619 -7.72549 2.38563 0.446811 -5.88989 -7.09171 0.259043 
0.355987 0.70313 0.685847 1.21294 0.467416 -1.04651 0.759279 1.36002 -1.28369 
0.20007 1.31054 2.07567 0.984935 -0.26221 -1.00038 -0.185267 2.43054 0.0622296 
-4.52195 0.0975092 -0.35322 -0.688893 0.199229 0.0279712 0.121986 0.0175685 0.283114 
0.0522502 0.000598259 5.43368 5.86177 4.28074 -1.80599 -2.0535 -0.196167 0.0181266 
-1.13274 -1.49795 0.0657286 0.706593 6.64602 -2.178 -0.927679 -0.980136 -1.12224 
3.89586 1.00851 0.278235 0.226587 -0.0562888 -0.172069 1.26955 0.720787 -0.713199 
5.2684 -1.22104 -0.622932 0.205295 0.901834 1.27352 -4.26257 2.66983 1.65775 
0.644059 3.27199 -0.394452 0.72822 -0.951371 -0.456309 0.374033 0.601417 0.277711 
-0.170597 -0.35525 0.585219 4.16085 -0.167552 -0.258313 -0.252577 0.0242724 2.40662 
-0.221613 -0.730793 0.905054 4.00074 1.10021 1.25832 1.87412 -6.18645 3.09905 
6.20909 5.96189 6.25994 -6.98246 -0.437705 0.0698291 -0.313502 -0.312607 -1.46544 
-0.691508 -0.60893 -1.21022 -2.19225 0.683572 -4.57166 3.22872 0.788436 0.650074 
0.0549295 0.479473 2.07026 1.98224 0.164625 -0.0990847 -0.350921 -0.214444 -0.225368 
0.25046 -0.533926 -7.63455 -6.42863 -0.965165 -0.688654 0.419255 3.20308 -1.92896 
0.510043 0.865596 1.61283 1.86127 0.20481 -0.489488 -0.172305 -0.303522 -0.353931 
-0.226157 1.8347 1.31602 0.509554 0.151421 0.0971641 -1.84467 -1.47469 1.99052 
-5.89413 -0.550249 0.777613 2.30072 -0.512136 -1.34249 -1.81538 0.505812 -0.412474 
-0.275522 -0.269657 -0.44421 -0.0518104 -0.0908881 -3.14661 -0.832305 -0.805362 -0.787956 
-1.44772 -3.85114 -1.00189 -1.5082 -1.44362 -0.214727 -0.0286706 0.920904 0.589887 
1.40375 1.90005 -9.57682 8.49225 -9.0841 -0.182268 -0.0102285 -0.126843 2.21079 
3.41909 5.6774 1.19553 -0.143575 -0.176558 -0.00772967 0.138161 -0.0681302 0.0494557 
-1.04455 -0.95957 -0.418529 -0.037071 0.0694932 -1.62358 -0.459271 -2.19619 0.651035 
1.95757 0.819925 -0.0862398 -0.912413 -1.0788 -0.218706 -4.93289 -0.75623 -0.5098 
-0.34295 -3.47084 -3.25737 6.54362 1.44837 -1.92628 -0.840641 1.11229 0.986874 
2.22874 1.54954 -0.311964 -8.07765 -1.02515 1.61478 1.37515 -1.2978 -3.49018 
-3.72279 -0.50265 4.18183 -0.673595 -0.588626 -1.21243 -0.481716 -4.94341 -0.72243 
3.68804 -7.48486 0.663747 2.24056 0.212607 0.192492 0.0845746 4.15893 9.35262 
0.173406 -1.19061 -0.774717 -1.2304 -2.54152 -0.143019 -0.169103 -0.18161 5.30657 
7.21666 1.18294 1.69639 0.976567 1.10144 0.801759 -0.570034 -0.259617 -0.913666 
1.1902 2.63788 -6.343 -1.63502 5.46671 0.841274 -1.79437 -3.66335 -0.939213 
-0.885412 -0.882946 -1.18652 -0.261417 3.22425 0.515164 2.12762 -0.353467 -0.803553 
-0.36034 0.636269 -1.15633 1.97291 1.34719 1.66618 -0.22339 -0.210225 -0.202927 
-0.118905 -0.20282 -0.592512 -0.430286 -0.853651 -1.05269 0.609745 -0.445081 -0.14837 
0.274056 1.73843 -1.36335 -0.2196 0.952351 -0.0769976 -0.0261457 -0.122252 -0.726184 
-0.202516 0.722725 -0.456127 -0.285426 6.47234 6.65675 -9.57852 -3.35327 -6.88025 
-4.26835 0.326424 0.971672 0.262703 -0.321829 2.50805 7.8433 2.70428 4.13552 
-8.94494 -5.40391 -0.588429 -0.912485 -4.26646 4.11169 7.67273 7.8334 6.78676 
3.30773 7.95895 -3.23405 3.52138 0.208897 4.51659 0.775836 -1.24274 -1.90961 
-0.828183 -0.802801 -2.94026 -1.03248 6.33892 0.976226 -6.30368 0.849968 -0.681793 
-0.50439 -0.422006 7.77282 -1.28316 2.64335 -2.63389 8.1017 3.70481 -3.8352 
10.0468 -2.66399 -7.35621 -0.0059441 -0.699513 -2.04653 0.2511 0.495211 -5.47636 
-0.839716 0.250978 -0.187363 -0.265416 -0.21336 -0.179602 4.21993 -7.30623 -2.46487 
1.30942 -2.23532 1.60807 1.55902 6.98706 -1.70542 0.996874 -8.52301 -8.55554 
-0.469633 0.339996 -0.28444 -0.107924 0.922497 -4.78133 -0.915943 -0.670325 2.09229 
2.29043 -2.72822 -1.13606 4.04016 3.7091 0.142794 0.626629 0.892807 -0.0198865 
0.851069 0.773764 1.30193 0.257673 -0.392161 -1.02762 -0.880039 -0.310028 1.00454 
0.138629 1.09568 0.0913049 1.40238 3.1924 -0.152617 0.588123 0.279238 -0.873789 
-0.526505 -0.172219 2.39485 0.0593028 0.00822404 -0.33079 -0.285933 0.532226 0.116537 
0.936656 -0.124562 -0.818855 -0.694062 -1.82302 0.142665 0.0656963 0.318764 -0.25926 
-0.235025 -0.444246 -0.304203 1.73215 7.56393 7.30567 3.73863 2.54644 -3.41812 
-0.936632 -0.300929 -0.248848 -0.476413 0.379347 0.0434548 1.67367 0.0835737 -1.8049 
-1.86183 0.113882 0.0749073 0.088265 0.0531028 -0.100815 0.129975 1.24387 -0.00886783 
-0.00582089 -0.444952 -0.168038 -0.219858 -1.67175 -0.629722 -5.56014 -0.757574 -6.15975 
0.108888 2.59141 -1.75222 0.604985 -0.482285 -0.199232 -1.97267 -0.131693 1.90625 
-0.255352 2.77394 4.30756 4.04722 5.09823 3.8884 -0.190907 1.71857 2.95322 
0.914984 -1.38436 -1.31636 -2.04717 1.07848 -2.68601 -2.1886 -1.30298 1.34646 
1.94965 1.09016 1.15272 1.13742 0.0253511 -2.4107 -2.13295 1.09746 -0.184792 
1.93825 4.41365 3.95367 1.21311 2.91084 4.85151 0.449636 -0.0515171 0.187261 
1.00236 -0.289213 -1.1295 -5.46847 0.152259 0.272032 2.15714 3.15966 -5.81502 
-2.78332 0.814089 -0.986632 6.20638 1.67394 0.25717 0.503855 5.05993 0.622938 
-1.81958 0.853806 -0.26071 3.44007 1.41366 7.9736 -0.170694 -0.170579 -1.60941 
-1.2079 -0.280865 -0.436307 -0.48203 -0.85832 -1.01863 -0.773991 1.49836 -3.77036 
-1.91405 -0.0545117 -1.1938 -0.376364 -0.438092 -0.00746382 -0.340573 0.540149 0.810346 
0.640456 -1.04893 0.261637 -4.10884 0.192568 -1.24919 -0.563396 0.16383 -0.487972 
0.609915 0.271139 6.22415 -2.35638 2.67293 7.71062 7.01242 0.967146 -2.70257 
-2.1555 -1.52061 -0.935443 -1.54315 0.23707 -3.27727 -0.11314 -0.246704 -1.42817 
-1.95726 -0.0190135 0.391411 0.452303 1.38401 -0.694466 2.67137 3.35551 0.110277 
0.0153658 0.591025 0.212333 0.0928678 0.194167 3.91097 2.97011 2.66058 3.34438 
8.05039 -1.01717 -1.2415 -0.646626 -1.89379 0.458687 -0.418438 0.438612 -2.21493 
0.443524 -3.32583 0.439178 -0.167171 -0.100789 0.209345 0.328896 0.145045 -0.612766 
-0.825192 0.180929 -6.84472 -0.608279 -0.458409 -1.02704 -1.47715 -0.805755 -0.589914 
2.09075 2.24492 3.26396 1.55135 0.167943 1.02072 0.814379 -0.144654 0.613368 
-4.07924 0.160756 0.364678 1.2895 -0.383441 -0.540086 -0.417161 -0.644843 -0.67638 
-0.850138 -0.81951 1.99242 1.65681 0.574934 2.36815 0.731239 -2.80759 -3.31442 
3.72146 -5.46004 -5.26086 -1.17044 2.05173 -3.31585 9.34578 7.21596 0.408813 
0.208881 0.626221 -1.09737 -0.117319 -0.901643 -0.412108 4.25659 -3.51399 4.01104 
-3.09429 7.79586 -4.2784 0.918754 -0.170295 -7.84533 -7.18058 2.58251 1.45685 
6.28126 6.71555 0.00300868 -1.4836 -0.832285 2.10105 -0.136354 7.15792 -1.51915 
-1.21539 -9.44123 4.48221 3.08211 -0.396886 0.0151813 -0.286434 1.72044 -4.01088 
-1.60641 -6.80617 -6.55676 -5.20973 1.09807 0.352198 0.217894 -7.50696 3.03781 
-8.00016 -5.73224 -3.66243 -2.25015 3.35439 0.183221 -0.301463 1.04015 2.63369 
3.19044 0.187063 2.06627 2.98299 1.76193 0.527329 0.234662 -0.530819 -1.58696 
0.0824723 0.307249 -0.276617 -0.345119 -2.5952 2.32483 0.129644 0.0435351 0.702811 
0.192487 -0.696224 0.933398 -2.77701 2.51172 0.628557 0.915175 0.081552 0.183968 
1.97507 1.16446 -5.84231 -0.45806 -0.676767 -1.065 -0.428994 1.21526 -0.339635 
2.68477 0.589265 0.0394788 0.241879 -0.212183 -0.701757 -1.5723 -0.394197 1.97758 
-0.971011 -0.212258 -0.273883 -3.3371 3.55701 -0.200785 -4.9486 1.174 -2.10251 
0.605669 3.87178 -2.37593 -5.17865 4.67502 -3.21884 0.645156 -0.251863 1.50682 
2.04313 -0.0756141 -0.0187979 -0.789974 1.8481 -0.412835 -0.493249 -0.827133 0.226224 
0.798542 0.135478 0.0416529 3.87059 -1.23174 1.30143 0.822644 1.74852 0.972811 
2.07079 0.731429 0.405458 -0.450774 0.593376 -0.241672 -0.0734276 0.243519 -0.215956 
1.09393 0.408252 0.893983 2.66021 1.15346 -0.357718 0.656315 -2.58489 -0.254137 
5.06817 -0.322524 1.17858 0.902925 -0.146532 -2.82007 -2.73286 -0.714135 0.24509 
0.353522 -4.09596 2.36872 -1.37178 -1.46934 -0.205413 -3.71155 -3.06449 -2.06068 
-2.32412 -0.700115 0.200798 -0.0943203 0.385508 0.157847 -3.03809 -2.04946 -1.05599 
-4.79173 -4.23441 -5.0615 -0.620176 -6.29036 3.34016 4.4094 0.373142 -0.191208 
-0.759438 2.70425 1.3943 -0.273303 -1.25508 -3.18302 -0.516962 -2.78321 -2.40653 
-0.130846 -0.722894 -0.207483 -1.78067 -8.62629 2.11899 -0.962864 3.40663 -1.22401 
-1.01993 -4.47399 1.60515 1.5131 -1.85806 3.28146 -0.133988 -2.67527 2.72941 
-0.291228 -1.40605 1.12146 0.370603 -0.635805 -0.679788 -0.16819 0.314279 0.315807 
0.489311 -0.147228 0.628001 -0.0989817 0.0755716 0.871176 -0.000434827 0.960743 0.736534 
0.682863 -5.62508 -0.286843 7.965 5.75193 -2.64743 -0.0928724 -0.830508 -0.558816 
-2.30746 -0.190954 0.470574 -0.191573 -0.127144 6.39788 8.28283 4.31189 6.85242 
-3.35715 -0.111918 -0.047341 -0.127421 -1.20678 -1.10943 -0.250613 -1.55113 -2.37081 
-1.08956 -1.40586 2.52596 0.399405 3.29756 1.0845 -0.79006 -0.521578 1.76192 
-3.0597 1.06802 9.09095 0.212052 0.309655 0.21773 5.04717 0.154704 -0.17535 
-0.726326 -1.79845 -4.85412 0.970184 -0.309622 3.78531 1.20215 -0.27079 1.62866 
0.396034 0.682396 -2.19463 -1.44769 -0.682672 -1.45699 -0.912781 -1.60206 -0.127732 
-0.160838 -1.2908 -0.172595 -3.72865 -3.53829 -5.25237 -1.155 -0.721745 -3.58017 
1.21169 -0.52997 0.678967 0.452819 0.698914 1.97233 1.7005 -0.379255 -5.96581 
5.30663 0.629806 -6.69958 -4.66717 2.29865 -0.1793 0.160411 0.634518 0.552812 
6.83025 7.23136 3.59876 2.64504 3.78761 -0.310247 8.4416 3.05257 3.15164 
1.92224 0.766269 1.56445 0.451248 -3.84727 0.940527 0.0560196 0.72996 -1.31812 
-0.823306 -0.781278 -0.673724 3.7656 4.68605 -1.17277 0.921338 1.44117 2.10504 
0.459634 -2.11409 -1.66322 -0.348064 1.90429 -2.40548 0.72983 2.31232 -0.90634 
-0.495406 1.15921 1.00043 1.75989 -0.108461 1.15692 0.179816 1.61663 -7.16914 
-8.22912 -5.23845 -9.05863 0.218419 0.234449 0.183292 0.211188 0.166731 -0.193678 
0.0965415 -4.25045 8.92843 -1.7278 -0.231076 2.53128 -0.476859 -1.01633 -0.0537656 
0.249744 0.815172 0.863295 0.439435 0.342011 -0.55991 -1.2338 0.0052342 -0.0867505 
0.913921 0.635456 0.694482 -1.19585 0.0299379 -1.21547 2.92245 -4.38768 -2.92136 
1.5135 1.55891 2.68081 1.43483 -2.18778 2.32781 0.914428 0.888567 3.15617 
2.04063 0.109664 -0.221019 -0.297547 -0.608688 -1.06879 -0.467227 -0.41447 -1.97633 
0.646929 -3.51429 -1.86831 1.84444 -1.93812 0.162576 -0.0764155 0.356028 0.0933223 
0.284709 0.281073 -1.89883 -1.38536 -3.49781 -0.255785 -5.88309 -0.948467 -0.671247 
-1.14759 -1.38488 -1.42143 6.03813 0.571099 2.98379 -1.66818 8.00805 1.31101 
7.67502 8.1713 -1.87158 0.0391946 0.348122 -0.74816 -0.254062 -0.155957 -0.424064 
-1.15742 0.368544 1.19968 3.03861 -2.24718 -1.85074 2.14711 2.5147 -0.331318 
-0.455692 -1.26952 -5.63337 -5.6942 0.175154 -0.231314 0.541462 0.287884 1.35039 
0.539672 -2.48647 -0.647007 -0.305088 -0.432189 1.50812 -0.945671 0.757227 4.11386 
5.47394 1.95083 -2.92203 -0.149539 0.372758 6.21903 -0.0113906 -0.229579 -0.367482 
-0.181357 -0.0713869 0.561468 -0.212606 -2.60775 0.460769 1.12988 0.263089 -0.329868 
0.690251 3.61028 0.573518 0.320158 -7.82193 0.452923 0.0240779 -0.0754673 4.47381 
-1.22855 -1.1724 0.211538 0.12772 -0.0115883 1.56674 -0.294536 1.90721 0.0937732 
1.51599 6.39424 6.77566 7.79385 -0.854991 0.755709 -1.87921 -5.60422 -3.98435 
1.4379 4.94431 -4.12418 -1.24381 1.43247 -0.931768 -0.18976 -0.0699662 -0.365434 
0.102929 0.196278 -8.13873 -7.63361 -0.0706574 0.0335344 0.0150837 0.00941728 0.0766196 
-0.185452 -4.34226 -4.33424 0.490948 -1.25639 -0.896988 -0.744342 -0.158663 -4.40493 
-1.33833 -5.40863 6.81242 6.16328 6.74012 -1.11647 -1.00744 -1.41892 -0.872599 
-1.54395 -0.577683 -1.81498 -2.27355 -4.0817 -1.65561 -1.99426 -0.452413 -2.22301 
-0.201509 0.0477364 -0.662597 -1.08829 0.12483 0.226473 -0.419785 0.753422 -2.42377 
-5.69003 -7.95191 -9.18589 -10.3081 0.964803 0.562834 4.41563 2.3503 1.13327 
0.754947 -0.836154 -0.0682324 3.02302 2.09655 -0.181547 -0.431046 -0.0853994 -1.52396 
0.4404 -0.799433 0.425106 -0.558876 0.905993 -0.14889 -1.89191 0.574919 0.132061 
0.664229 0.000809585 -0.617932 0.47636 -4.87168 -6.25056 -1.45093 -5.72704 1.34598 
0.298433 0.200392 -3.25608 0.093945 -1.54785 -2.97245 0.434689 0.335651 1.5565 
1.4325 -7.90164 -5.35213 -7.08802 -4.25442 1.42812 1.63159 1.78074 3.28065 
1.5568 -1.37558 -3.70742 -4.09534 1.5478 0.115834 0.249789 -1.59603 1.26713 
0.37094 -0.626016 -0.526735 -1.95714 -3.35879 -0.596266 0.736533 -1.78919 -0.689214 
-2.43633 0.923919 0.0182819 1.0396 4.51074 0.559675 1.06809 0.687843 -0.335107 
-1.14792 -0.842865 -0.857035 -0.0893767 -0.463783 -0.130213 0.0503659 -0.150089 0.943527 
-0.682263 -0.40864 -0.0922558 2.27649 0.0737746 1.8766 -5.96641 -5.54344 -4.71847 
-2.28218 -4.69179 1.24599 2.09649 2.63903 -2.9049 -0.470574 -0.239349 -0.256252 
-0.78053 0.0391164 0.442217 2.18327 0.835302 1.3219 1.14724 -0.859888 0.139667 
-0.207913 0.85992 0.912379 0.605637 -0.989607 0.259591 0.948466 1.19232 -0.23722 
-0.407738 -0.293599 1.64066 0.397395 0.151545 -0.395454 0.604272 -0.873255 -1.27978 
2.82116 1.10535 3.56116 1.42619 0.182665 1.97171 -0.276347 -0.90884 -4.32431 
-3.83397 0.291022 0.378419 -0.0104721 0.736661 0.559904 6.71254 -0.0216732 -0.219567 
-0.510548 0.813857 0.436063 0.8122 -0.368013 0.0251878 0.192046 0.414934 -4.8143 
-4.76853 -2.42496 -0.559905 2.3341 -2.37619 -2.13328 -0.604847 -1.05001 -0.96983 
-1.68591 -3.66205 2.56311 3.35738 0.45015 0.213885 1.26518 0.190069 -2.76885 
-2.74533 -2.60193 -3.17622 -1.23124 -0.124851 0.0888375 0.205495 0.106113 -1.9105 
-4.21383 -3.38925 2.06541 0.513547 0.314892 1.2655 0.52883 1.25113 -2.24952 
-1.95408 4.13808 -1.48717 -2.09775 0.0732682 -0.458433 -0.311393 -0.585715 -0.18158 
2.29549 -0.551916 -1.97839 -1.02907 0.457499 0.270725 0.235316 0.293243 -2.12282 
-2.85869 -0.247675 1.39778 -2.05909 -1.74567 -2.12375 0.0289632 0.257501 0.222209 
1.59359 -0.477332 0.0236815 -1.98588 -1.89683 -2.02692 -1.77324 -2.00576 0.469092 
1.76208 4.50926 -1.39062 -1.25494 -0.415509 -0.461817 -1.18653 -1.07143 -0.424044 
-0.00594078 0.0998925 -0.190477 -0.291718 -0.334492 -0.92289 -0.82718 4.07335 1.80647 
1.43119 1.21536 0.202328 -5.80528 -0.801894 -2.89163 0.34045 1.46081 0.973611 
1.32623 1.83971 -0.741305 -2.71553 0.269157 0.312713 0.744895 -0.0316501 -2.23815 
-0.805218 0.122715 -1.94741 -1.1242 -1.23829 -3.47157 -0.196766 -0.135959 -0.466442 
-0.0899946 0.377102 0.690135 1.10624 0.432751 4.6885 6.82509 4.82027 5.89752 
7.62203 -0.038706 -0.0908509 -0.0934973 0.71437 1.72812 1.1068 1.76056 -2.24704 
-5.17925 3.46711 -1.61744 -2.5738 -3.13076 -3.72774 -4.65244 0.910788 1.05228 
5.77422 5.71467 5.00206 -3.6093 4.95305 -2.63332 0.0108367 0.147733 0.569375 
0.78507 1.38732 0.863034 0.993815 0.487355 0.907129 -0.111188 0.87112 3.48785 
2.96898 2.61408 0.991697 0.637486 1.88429 1.39008 1.99564 0.0033325 0.470931 
0.536142 0.689998 0.449443 0.443539 -0.223907 1.71847 0.193171 -7.07431 0.275602 
0.222058 0.255571 0.29612 0.283862 -1.06679 -0.213172 1.22561 -0.509205 -1.12188 
3.07871 1.54987 -0.497132 -0.245007 1.55505 -0.351627 -0.000320291 1.26275 -2.48467 
-0.321761 -0.376056 -0.718416 -2.8526 -1.79921 -0.676812 -1.56097 -0.469831 4.03991 
1.47693 0.219818 1.10323 -0.0771835 2.16848 0.0102353 1.01344 -0.396928 0.399484 
6.36223 -1.6356 3.74827 -1.96006 -1.38897 0.427236 0.221371 1.29997 0.258032 
-1.96373 1.93634 -2.67812 6.16213 -6.45702 0.21307 0.261424 0.278065 0.379317 
-2.36494 -3.88386 -0.0285616 -0.401644 0.840071 0.318165 -0.297754 -1.41644 -0.126701 
-0.79467 0.226691 0.144672 -0.711371 0.206404 0.431193 8.33313 1.03563 0.205881 
0.19643 1.75176 0.31394 -0.129374 1.40723 -0.467624 1.39606 1.7996 2.09296 
-1.92751 4.4158 0.201103 0.263452 -0.876139 0.318448 0.18805 0.564244 0.206278 
0.269048 -0.39126 -0.449476 0.300029 -0.55829 0.21855 -0.00187863 -1.6771 -0.404841 
-0.232867 0.45485 2.9404 -7.73188 -6.16389 -8.6554 -7.59612 -8.49809 -3.28587 
6.10875 6.78746 7.68788 8.01012 0.248573 0.152815 0.424279 0.194645 -0.585861 
0.345317 -1.0558 -0.400447 1.17011 -0.869996 0.907384 -1.23664 -1.08696 6.34263 
1.78778 0.473873 -2.88768 0.25889 1.46896 0.349354 0.421566 0.164862 1.59549 
0.270858 1.16791 -0.341669 0.547496 1.1406 0.578482 8.04996 7.50631 -1.60761 
-1.23536 -0.996738 -1.99716 0.20198 -4.73355 2.92746 -2.70106 0.372176 -2.02197 
-0.985111 -0.261819 -0.414946 -0.163065 -0.301782 -1.00744 -0.494654 -0.723907 -0.949767 
1.90179 2.17452 -7.605 -6.07047 -5.29091 -7.23484 3.55131 1.36751 2.08318 
-0.410304 0.760993 -0.611482 -0.425534 -0.210111 -0.108939 -3.20382 5.69135 -2.73616 
2.31181 -2.0127 3.03455 1.69848 2.21834 2.79056 2.58366 1.51343 -3.08962 
1.28883 -5.74492 0.379879 0.0209244 -0.151839 -3.08695 -4.81766 3.94624 3.25023 
0.0882485 0.207402 -0.140878 0.230019 1.38076 0.489376 -0.480622 -0.568591 -0.662614 
-1.14075 -2.6912 4.48053 3.44477 3.49461 2.40299 0.576385 0.191744 -1.70571 
0.059278 -0.206348 1.27857 1.3695 -0.140894 0.184671 0.0939384 0.611125 0.34255 
-0.478375 3.68627 0.298694 0.0679609 -0.0951403 0.506508 0.478285 -0.115511 -0.28239 
-0.286471 -0.147945 -0.161172 -0.180387 -0.217798 -0.125933 -0.0992031 -7.76216 -8.17278 
-7.32746 2.6437 0.403779 -1.15857 0.297248 -6.34525 -4.39509 -6.75824 -7.06174 
-0.14306 -0.330465 -0.16029 3.46924 3.95516 0.0991955 0.00841867 -0.943407 -1.9399 
0.258546 -0.163284 0.360319 0.237503 0.0746506 -0.00125831 0.344848 0.308666 0.347752 
0.273623 1.8559 1.61475 -0.259107 -0.185494 -0.130818 -0.629436 1.70632 -1.61836 
2.15169 -1.49011 -1.76167 2.90437 3.57745 0.548059 2.29548 0.581439 -1.40842 
2.34441 -0.83144 -0.478903 1.94307 -1.05782 0.789384 0.722892 -4.63991 4.27565 
1.67668 -1.26521 -0.885629 -1.71141 -0.427712 -0.626306 -9.13404 -0.675115 2.48228 
5.57223 5.72084 5.32547 -0.375816 -0.58689 -1.00864 -0.45819 0.0185271 0.248116 
0.272475 -0.523592 3.35885 1.66652 -0.719991 -1.55487 -1.99348 0.373989 0.0792113 
-0.402177 -0.436399 -0.217082 -0.133282 -0.114527 4.42381 4.58432 2.90896 -0.360606 
-0.202649 -0.505548 -0.780048 -0.278207 -0.832585 -0.554991 -1.149 -0.19294 -0.264724 
-0.169779 6.33431 4.7837 -0.220638 -0.11878 -0.269381 -2.89301 0.514189 -4.64888 
-3.38723 0.65823 -3.59815 3.9131 -2.4883 -6.67453 -1.81354 -3.25581 0.213721 
-0.0599882 -0.617337 -1.96785 -0.222646 -4.26595 -4.44654 0.931899 -0.0342089 -1.29744 
-0.285155 -0.861558 -0.0719655 -0.228903 -0.735307 0.606094 -0.412653 -0.0784894 -7.20865 
3.24158 3.14598 -0.889135 0.96373 1.03385 0.588433 0.672242 -2.71503 -3.96192 
-1.80726 -2.36039 0.314668 0.930409 0.772866 0.469718 -0.846045 -0.921018 2.25486 
1.74012 3.34675 -1.15722 -0.0567386 -2.86103 0.358097 0.496136 4.94838 8.48171 
-2.7212 -1.63685 4.00625 2.21086 6.5141 5.09904 4.98285 3.25483 3.73448 
2.78506 -0.632102 -0.546629 0.105761 -0.299669 -0.3246 -0.256015 -0.139007 -0.588575 
-0.470341 -0.615145 -0.174537 -0.205359 -1.14355 -0.430547 -0.215649 -0.94944 0.358685 
-0.588556 0.481179 3.35701 -0.81667 0.390496 0.0664343 -0.591783 -0.826818 -0.697191 
-0.71773 -1.38379 -0.733402 -0.759255 -0.208461 -9.28735 -7.34497 -2.46927 -3.05722 
0.075753 0.443604 0.0542462 0.032067 -0.353156 -3.8727 1.30151 0.683827 -0.858979 
-0.523838 0.0174587 -0.988362 0.288648 1.32043 1.36494 -0.207825 3.42391 0.255273 
0.484041 0.228302 1.51847 0.0932281 0.0609972 0.176256 0.100598 0.180933 0.711223 
0.911056 0.687286 0.551296 1.20634 0.281562 0.282975 0.479095 0.393491 0.111459 
0.252762 -1.6622 -3.22111 -1.06887 -2.75765 0.227508 -0.532136 -1.50239 -0.539151 
-0.339282 0.0641626 -1.77912 -0.0772536 -0.150062 -1.28688 -0.631068 -1.15012 -3.37047 
0.396826 -0.648104 -1.20366 3.35597 0.588684 2.48494 -0.155913 -3.48578 -4.82373 
-2.81585 -8.22584 -7.85622 0.484775 -7.60329 3.53552 8.09345 8.31202 -0.0436456 
-0.52851 -0.816661 -0.693944 -2.16113 3.51012 1.76147 -0.483371 -0.283807 0.651992 
0.90108 1.48998 1.07912 1.05036 -2.74455 -0.694363 0.253597 0.633393 0.392787 
0.21488 1.12261 0.265549 5.45371 -3.66433 4.33651 -0.288488 -0.566193 -0.289461 
-4.73763 3.46585 -0.90004 -2.05977 -3.34035 -1.08459 -0.440351 -0.189971 -0.0428738 
2.41797 3.59525 3.90742 2.60897 -2.83689 -2.47156 0.589049 1.22729 2.14479 
1.60941 2.95564 2.25247 1.03346 2.5616 2.19849 8.71381 8.29865 -3.14244 
7.12265 0.794172 -0.403144 -0.549989 0.555124 -0.462693 -0.396183 1.12798 -0.609448 
-4.21509 -0.120593 -0.285691 -0.0716983 -5.87074 -1.92251 -1.99049 0.105696 0.138865 
0.0476768 4.31148 0.158628 1.58421 1.37639 1.0192 0.419676 0.457602 0.313547 
0.667484 0.132597 -0.13824 -0.220883 0.219342 -0.0241051 0.778286 0.0823669 -0.067768 
-0.148511 -0.261288 0.201649 2.69672 2.024 0.637143 1.26788 -1.73005 -1.86005 
-1.56691 -1.96393 -0.585558 -0.624758 -0.569943 -0.806609 -1.25319 -1.39443 4.79771 
5.75619 4.97155 -6.2754 9.97014 -1.82151 -4.27914 1.98125 -1.78418 -1.60138 
-4.25155 -4.9331 -3.93798 -0.907113 -0.680304 -2.55449 -0.169666 0.282011 7.23395 
-0.282429 -0.710609 -0.340478 0.311203 0.24913 0.020475 0.35667 0.314474 -2.52303 
-2.06414 1.15419 0.297349 0.430084 -0.0947706 -0.13732 -0.119094 -2.17685 -0.222469 
0.990245 0.594139 1.97531 -1.50324 -1.37179 -1.21531 -0.565119 -0.517628 -0.272886 
-0.821831 1.66738 4.36709 3.28163 -1.74963 -1.17301 -1.22761 -1.68397 -2.05852 
2.40988 -2.39502 -4.18222 -0.520147 0.0169578 -0.324718 -0.470272 -0.733966 0.217086 
-0.415344 -0.175925 -1.44396 -3.13655 2.61587 0.223449 0.25235 0.171565 1.1849 
6.92554 0.149043 0.10624 1.1897 0.240341 0.223904 0.0367255 0.997596 -1.04169 
-0.725115 0.227901 -0.629159 -0.217851 4.56753 -0.975225 0.0387707 -1.96658 3.88046 
-5.20795 -0.963303 -0.822494 -0.945052 -0.614579 -1.91994 -1.56433 -1.2528 -1.10265 
-0.105996 -0.719261 -3.82106 -0.0827265 -0.153251 -0.1895 -0.0396297 -0.0596468 -0.0268866 
2.12461 2.01817 1.31423 -0.569784 0.160051 -0.568177 0.533128 -0.439227 0.112714 
0.236417 0.163482 -0.0697008 -0.0312759 -0.0950205 1.75803 1.1774 -2.53052 -0.542165 
0.456633 0.209699 0.488123 5.30457 -1.21719 -0.173827 -0.592742 -0.182469 -0.463702 
0.254926 0.680161 0.209639 0.647046 0.188875 0.801509 1.07484 0.931694 -2.16746 
-1.83492 1.34804 0.35662 1.23139 0.787274 -0.928193 -2.22431 -0.256049 1.25012 
2.1044 0.719797 -1.46729 3.08171 -2.52958 -0.286517 1.1565 0.617586 4.62608 
-0.856478 -0.625556 0.0856574 -1.50297 -2.24359 -2.38985 -1.08134 4.41082 -3.87689 
6.52946 -1.94541 -0.677915 -0.0842191 -0.282718 0.18009 0.413591 0.270718 0.878379 
0.822883 -0.166638 3.71373 -0.541446 -0.398083 0.226799 1.73367 -0.24967 -1.07153 
-1.54115 1.65004 3.251 0.936982 0.567443 2.8322 -0.750231 -0.647522 -3.66478 
0.216076 0.362569 -2.42482 5.45236 2.37834 5.85175 -1.30523 -0.391041 -0.208374 
-0.159832 -1.366 -0.160537 -0.154614 -0.432466 0.433643 -0.566598 -0.29849 -0.404914 
-0.410925 -0.304678 -0.341586 -0.489956 -0.955685 -0.85049 -0.442041 -3.74848 0.388129 
0.881125 -2.28551 -1.42377 0.645172 0.240499 0.486738 -0.51032 0.167542 0.0970551 
-0.24637 0.0260577 -0.121308 0.708672 0.822905 0.327193 -3.36422 -4.84355 2.61104 
-0.155184 -2.09812 6.13219 -0.989081 5.3446 -0.895122 -0.372559 -0.03758 -0.110497 
-0.18311 0.0668427 -0.136361 0.114448 -0.104734 -4.52978 -4.84294 -0.371531 -3.82323 
-0.218728 -0.475453 -3.5473 -0.186688 -0.150804 -0.171183 -0.164661 -0.863537 1.52632 
0.0196115 -1.49945 6.45474 -0.161332 -0.481302 0.202068 0.456507 -0.193211 -0.224333 
-0.246258 -0.159016 0.942179 0.0975443 -0.780987 -0.328234 -0.199071 0.990252 -4.27278 
1.86255 -4.49923 -0.803908 -1.20085 -1.65582 -0.103413 -1.10754 -0.0353422 -1.33374 
-3.95044 -0.321245 1.00059 -0.703187 -0.731612 -2.74555 -1.24582 -0.353463 -0.344583 
-0.775252 -1.95086 -4.93182 -1.57344 5.249 1.17209 3.55366 3.97169 -0.192205 
-0.31633 -0.552958 -0.171566 2.41714 3.16861 3.33802 -4.30959 -0.552617 3.45747 
1.6358 -2.98612 -1.57315 -0.81689 -5.28119 -0.895911 0.0320015 -0.158663 -0.48949 
-1.53305 -1.47495 -0.258342 3.09433 0.420221 -0.46494 -3.97921 0.126686 -0.210493 
-0.183255 -0.122562 2.49075 1.79309 -0.297134 -0.308676 -0.404654 -0.112408 0.297591 
0.239575 -0.652838 0.570275 -0.00659057 0.130395 -1.64754 -1.19159 -0.738745 -0.490406 
0.00338395 -0.411423 -0.435779 0.228105 0.298467 0.46638 0.170533 0.303668 0.486215 
0.345905 0.259307 -0.784857 -0.315739 0.664449 -0.285352 -0.376687 -1.86757 -0.221049 
-0.0378212 0.649431 2.50582 0.425486 0.0762609 -1.93786 4.63333 1.694 -0.421283 
-0.152599 0.133095 0.0024456 0.398828 2.74575 -6.50524 -0.143172 -7.38033 -7.20066 
2.43448 1.55605 -0.195797 1.61224 0.612761 1.08485 -4.19751 -4.46214 -2.00374 
-2.52267 1.24522 1.13395 0.232077 0.293319 0.136769 0.442965 0.561321 5.84919 
2.41619 1.77029 -2.74381 0.545511 0.0256412 -0.0331181 6.90907 -3.91633 -2.69828 
-2.9935 -0.0270955 -0.161685 -0.153058 -1.86825 0.0109093 0.132319 0.26297 1.56187 
-2.35136 -1.95472 -1.67927 -0.277142 -0.337673 -0.384684 -0.772028 3.77396 5.22448 
5.42075 0.316786 0.258004 0.318879 -4.44433 -3.70573 -3.58166 0.391749 0.691879 
0.961488 0.0403502 -0.185406 0.507473 0.620995 -0.365785 -1.03736 -0.176117 -0.414072 
-2.03442 -0.147787 -2.2135 -2.88679 1.42212 0.8369 0.254077 -0.457009 -0.405356 
-1.13641 0.578777 0.421301 2.04855 -5.5206 1.38016 -2.48477 -2.70124 -4.26059 
-2.22681 6.39985 -2.17607 -3.14633 -0.172201 7.32134 -6.46803 4.35167 -1.11836 
-1.44645 -1.20202 -0.369947 -1.40228 -1.40123 -0.373245 -0.0961542 -0.362019 -0.747154 
0.514509 0.109986 0.0937096 0.221401 -1.06372 1.11327 0.3772 0.356407 -0.421681 
0.16336 1.03616 -0.560274 1.14755 -0.282393 -0.748213 -3.8078 -2.24379 0.74844 
1.55673 0.672638 1.20488 0.158032 -0.603857 0.186307 3.58606 -3.34421 2.14871 
2.39679 0.265777 7.5382 0.941918 -0.334556 1.18952 0.946197 2.61323 0.266971 
0.0300402 0.230777 1.44554 0.491121 0.351085 0.362936 -0.212138 0.344261 1.22837 
-0.287889 1.86948 3.59388 -0.0768446 0.241598 -2.16616 -0.985577 0.0485081 -0.0776484 
-0.197642 2.30373 -0.326638 2.15157 2.63865 0.0173468 -1.13542 -0.471653 -0.198572 
-0.00017435 -0.395088 3.58414 -4.52398 -0.530684 -0.206626 -0.171256 0.242306 0.651678 
-0.862895 0.375387 -0.487571 -0.833465 -4.12079 2.82568 -2.92407 0.310516 -0.159927 
-1.01091 -0.414452 -0.200721 -0.416355 -0.141569 6.7501 -3.6863 10.3291 -3.20417 
-0.46585 -0.683822 -0.592243 -0.252245 -0.888857 -2.01659 1.52774 1.92607 0.738645 
0.434966 -6.16546 -4.07212 -0.42409 3.0067 1.08621 -2.09306 4.24558 -0.148635 
0.0942902 -0.0935357 -0.0283078 0.115488 -0.556768 -0.546557 7.41506 3.50647 -3.84607 
2.37309 10.279 -4.2655 0.426489 -0.0632961 -0.519239 -0.822534 0.0664997 0.455986 
-0.802181 -1.52252 9.21853 4.80513 -1.98165 -1.98393 -1.0254 -1.60212 -4.17227 
-1.66517 0.268218 0.269028 -2.0949 -1.37787 -0.678072 -1.64425 2.464 3.14241 
-1.30432 5.67309 5.12097 7.62049 2.11602 3.53544 4.151 2.36426 0.0707539 
-1.62029 -0.1639 -0.070982 1.95917 -4.47362 8.09411 -0.382359 -0.440606 -0.406949 
-0.558934 0.882286 1.02724 0.255064 0.140781 0.188822 1.56471 1.31167 0.162975 
0.126976 0.40578 -1.06013 -1.13244 -1.13395 -2.80432 1.1876 0.687117 0.661871 
0.189629 0.246601 0.277955 0.235571 0.828248 -0.0379345 -3.13577 5.14735 -2.97405 
1.25751 -0.405103 -0.103391 -1.92461 -2.64307 -2.44081 -0.0806616 -0.0894723 -0.844455 
-0.312803 -0.116112 1.45459 0.725635 0.581532 1.6594 1.00976 2.49662 -0.0967819 
-0.974217 -0.206197 -0.284608 -1.19865 -0.513807 -1.59223 -0.514323 0.525756 0.576044 
0.913893 -2.86621 -0.854973 -1.38164 -0.940222 -1.26863 -5.45988 -5.10233 -1.10694 
-0.0912042 -1.19147 -6.59465 -7.38709 3.35144 1.69064 1.24484 -0.646865 0.696788 
-0.0418968 0.460456 -0.145048 -0.754174 -0.117097 -1.05335 -1.04063 0.724749 -0.178932 
-0.208929 -0.174218 -0.413508 -0.154054 2.12917 -3.58464 -2.87118 -2.98646 0.213775 
-0.948015 -0.642027 3.88031 -3.35075 1.29353 0.624446 -0.62402 -0.735465 -0.395591 
-2.5291 1.31261 1.29837 0.780349 1.40944 -1.10085 -1.39764 -0.109961 0.582644 
1.01702 -0.0843935 0.816277 0.30673 0.433522 0.609796 0.502981 -3.10734 1.45367 
3.01709 -2.8638 -1.49096 0.567852 -1.01267 -2.69355 -9.82035 -2.23563 -2.70253 
-8.96124 1.72896 7.3756 -1.39459 0.408628 3.86637 0.406311 0.646817 0.716243 
1.07545 0.740348 1.45397 0.106273 -0.963736 -0.239401 -1.57007 -1.30221 -0.0427858 
-0.699747 0.168189 1.22125 -1.81052 -0.202877 -2.91876 -3.00288 -4.03881 -4.91885 
-0.497837 1.70543 5.59072 -0.120405 0.781244 1.78688 -0.580549 -3.08247 -0.374092 
-0.287053 -0.342997 -0.43695 -0.0114275 -0.234434 0.0114937 -1.11364 0.0867507 0.628549 
-0.31551 1.11664 -3.05537 0.105483 -3.10538 -0.254995 0.668147 -2.5717 -2.23648 
-1.95481 5.06938 -0.547328 -0.254173 0.422456 -0.192753 0.923239 0.290155 1.9755 
-5.32423 -5.18748 8.25551 -4.49903 8.59457 8.52983 -6.5306 -7.54249 -6.01395 
-7.22578 -7.28165 -7.12943 6.3863 5.2111 1.3457 4.38903 0.7025 -0.510413 
1.52783 -7.83341 -7.88933 0.443952 1.66521 0.265943 0.520571 0.419269 -0.416163 
-0.325621 -0.61191 1.13 -3.79669 -1.3319 -2.87529 7.41897 6.56794 -0.369049 
-0.276466 -0.271946 0.312086 0.263963 0.214913 0.247481 -0.416937 -0.513804 -0.324672 
-0.451033 -0.326211 -0.46158 8.95903 -1.58167 -0.256737 -0.0634139 0.486899 4.688 
-6.73766 2.58905 -0.12153 -0.353388 -1.05942 -1.48267 -1.60818 -0.0179968 -0.0529813 
-0.0573933 -0.50153 2.40931 -0.677967 0.181358 -0.304454 -0.666778 -0.0865092 0.181098 
0.634182 -2.68537 3.83111 -0.0810653 1.15376 -0.785865 0.250365 -0.241657 -0.381032 
-1.06107 -0.741938 -0.662765 -2.78284 -0.970603 -0.0982866 -0.530583 -0.461433 1.27262 
-2.95561 -0.540731 1.04634 6.69789 3.58096 -5.28142 -0.44332 8.83811 -0.611351 
5.98315 -2.91988 2.91666 3.88178 1.02564 1.58854 0.335771 -0.66018 -0.598428 
-2.85676 -5.82592 -2.39501 -0.275989 -0.242735 -0.327102 0.417804 0.41241 0.461002 
0.502923 0.00119799 0.210163 0.410602 0.434435 -0.44378 -1.08801 -1.59957 -0.744327 
-1.17267 -0.925683 -1.65687 0.322843 7.10183 5.03234 3.6369 -0.525607 0.422525 
-8.91837 5.80393 -8.61161 -10.6414 0.729569 0.399362 0.759006 1.20359 0.122927 
0.636287 -0.183899 -0.244495 0.0392705 -0.868164 -1.07918 -1.29465 -0.692773 -0.611635 
-1.12052 0.901175 3.04618 1.57493 -1.1619 -1.32903 -0.966172 -0.702663 -0.485016 
-0.504877 0.411451 0.442457 -0.108836 -1.28301 -1.09182 -0.907145 -0.515343 1.00746 
-0.490385 -0.0604006 -2.91377 2.69888 3.96527 0.782765 0.188195 -0.423245 0.713766 
5.03883 3.52185 2.35976 3.22987 0.32934 -0.341892 0.527974 0.145555 0.689761 
1.14686 1.00014 -0.566941 0.0583485 -0.46133 1.82015 0.493775 0.931671 1.23812 
1.0418 0.397944 0.238205 0.985775 0.761391 -2.36116 -3.15172 -1.99594 -0.354146 
-3.19765 -2.38293 -2.17615 -1.82475 -1.43803 -0.181391 -0.461451 -0.200558 -0.319282 
-1.06136 -1.37684 -1.19852 0.0291121 0.244858 2.27702 0.569634 0.218816 1.12079 
1.03941 1.10601 -1.59863 1.13906 0.0815528 -3.95937 -0.711003 -1.9626 0.698625 
1.32224 -2.64 -1.46415 3.27909 -1.16657 -1.99653 -0.165018 -0.371262 2.12055 
-4.12214 -5.13025 -4.97479 -5.12709 -5.0669 -0.431617 -0.139851 -0.959346 -1.17836 
-1.17124 -5.852 -1.35305 -0.646997 -0.436413 -0.148987 0.0756356 0.261157 -0.276619 
-0.736064 0.780962 0.238952 0.854436 0.930188 0.882856 0.281207 0.369729 -0.427986 
-0.144021 0.515311 -0.889917 -1.25798 0.00853972 5.97514 2.94953 4.6459 2.15389 
1.64108 2.20727 2.62479 -1.30107 -0.0258281 -0.411799 -0.752637 -0.922127 0.772897 
2.20772 5.98171 1.72978 -0.147847 0.81482 5.84356 0.488755 -0.382347 -2.59689 
-2.27157 8.01324 6.13723 -1.85854 -2.27304 -1.58475 -2.89116 -0.355047 -1.40636 
-0.460868 4.33966 4.64576 3.09524 0.887181 2.04988 1.93299 6.07393 2.84952 
0.307518 0.675417 0.731187 -0.239244 1.91707 -0.0714317 5.21088 4.62022 3.59291 
4.59383 -1.33777 -1.05793 3.05694 3.31308 -1.70821 -1.15643 -4.54345 1.10678 
1.26887 -0.831857 -0.400973 -0.596915 -0.331149 -0.122545 -1.74089 -0.945571 -1.38173 
-0.882623 -0.787817 2.60913 0.786839 0.812697 6.36035 1.31395 -4.08679 -3.87782 
-3.69742 -4.27792 -4.13493 -5.62218 -3.36687 -5.77325 1.95181 -1.73197 6.41591 
1.61223 1.8207 -0.637668 -0.723383 -0.121728 0.713898 4.64153 1.50234 3.31785 
0.44104 0.450065 -0.255377 -0.060614 -0.3168 -0.399329 -0.406305 -1.15062 -0.519152 
0.814238 -0.470731 -0.887456 1.29725 0.863636 0.536123 -2.4378 -0.32878 -1.39547 
-0.473055 -1.89249 -1.00602 -0.563709 -0.975643 -0.351073 -0.269097 -0.261938 0.521411 
1.64295 0.285787 0.852499 0.711923 -1.21642 0.600026 0.631481 8.83918 -0.479443 
0.0616322 0.495564 -0.991449 -0.192724 0.506699 0.331576 0.324212 -0.131554 -0.100661 
-0.0843158 1.16165 0.321517 0.62457 -0.352484 -0.852288 1.04821 -0.805963 8.1478 
0.835587 0.302107 0.879851 0.185284 0.6339 0.989677 -0.142308 4.07281 3.01116 
-0.276204 1.49487 -1.52501 -1.94264 -0.911161 0.124178 -1.23887 -0.473012 -1.16011 
-0.652733 -0.40511 -0.274137 -0.524236 0.925014 0.0235402 -0.0552071 0.00746163 -0.0139895 
0.498998 0.477357 0.6442 1.02494 3.48632 1.27517 1.62153 1.22137 0.812772 
1.05017 0.932836 2.17745 1.04289 1.03552 0.997034 -2.84644 -2.22169 -2.46669 
0.544111 -1.14871 -0.189812 -0.277289 -0.519073 -0.115413 1.46473 0.448286 1.01564 
0.626284 1.62706 0.21208 -0.468467 -1.22163 0.0797963 -1.71517 -1.50117 -1.64919 
-2.02868 -1.5344 -1.03533 -0.99048 -1.06626 -3.56023 -2.31064 0.514804 0.811534 
0.282142 0.688277 -0.703227 0.982966 -0.778925 0.420464 0.443844 0.08628 1.09272 
0.172148 0.21838 3.66303 4.63863 3.23296 4.15363 -1.64882 0.457787 -3.06214 
-0.214016 -2.87972 -0.375584 6.41587 4.97854 5.67883 5.35113 2.48444 -3.90109 
-4.44241 2.08405 -0.880234 2.06998 -0.358863 0.172955 0.0906583 0.0812814 -4.50456 
-9.15761 2.41274 0.0977397 0.126741 0.0323238 0.0669933 0.224818 -8.41558 0.264386 
-2.80784 -0.705659 -0.383732 -0.393031 -0.276002 -0.66996 -1.24874 -1.32587 -0.177144 
1.252 -1.09222 -0.00221084 0.803334 -1.00844 0.31106 3.52027 0.948157 0.816699 
2.06948 1.20272 0.761345 4.08487 0.660734 1.52861 2.58856 -0.187295 -0.208208 
-3.46556 -1.15207 -1.03617 -2.84993 -3.6298 -1.00503 0.457841 0.131005 0.31467 
-0.264896 -0.821895 0.13141 0.00312193 -0.179148 -0.85964 -0.204005 0.588229 1.7753 
0.861232 0.0361616 0.4937 5.38392 -0.306463 1.26733 0.372777 1.07557 1.12685 
3.86922 2.25321 1.61846 2.28482 1.8581 1.29302 0.697752 -3.2505 0.456607 
-0.954406 -0.828173 1.1643 0.550619 1.12062 1.05749 0.507086 0.29474 1.40084 
-0.31318 0.0860889 2.25741 -0.768222 -0.81318 -4.03817 0.732005 0.646225 0.63741 
1.02386 0.748129 2.47683 0.0499356 2.03673 -1.30574 -2.93598 6.03962 1.80246 
-3.12691 -3.30202 -2.87383 -0.686531 -1.50648 1.0521 0.817072 0.713231 0.932947 
0.233976 0.670019 2.13003 1.11707 -1.78181 -0.169416 0.704316 -0.23867 5.3972 
4.24609 2.15937 2.83703 3.23218 -1.81721 -0.256071 -0.518895 -2.00415 -0.126964 
-2.07409 0.226571 0.303192 -0.536937 1.33608 2.9691 -0.383593 -0.182487 1.56509 
1.77766 -0.892516 -0.106754 0.687847 0.876664 -0.347267 -0.44946 -0.335843 -0.298444 
-0.415869 -0.375062 0.568181 1.73737 1.86205 0.546484 -0.106667 -0.307589 -2.00265 
-4.01611 1.34356 3.56097 -0.709226 -0.188688 -0.159046 -0.514028 -0.961858 -4.44605 
-0.994257 -0.751152 -2.74706 -3.2653 1.58461 -2.40647 0.504484 0.931278 -1.56104 
0.722712 0.27904 0.441273 0.224819 -0.403587 3.66484 -5.71421 2.43375 -0.125694 
0.161506 0.100875 0.702218 -0.687866 -0.209175 -1.25852 2.55134 0.798029 -1.0013 
7.46915 2.65781 2.63019 -0.828402 1.81188 0.931653 -1.95072 1.63164 -0.454341 
2.24712 1.54397 1.61555 3.26186 -1.72623 1.88833 0.241256 -0.0618957 -0.745033 
-1.92984 0.0628023 0.0943373 0.0700477 -0.138682 -0.163073 0.299252 0.191543 0.227402 
0.521921 0.425203 0.340684 -0.61068 0.555952 0.0705529 0.25106 -1.34928 0.421582 
-6.42176 -6.98036 0.526631 -0.189371 -0.198868 -0.157504 0.474105 2.84499 -1.93445 
-1.19862 -0.0154443 2.13092 5.42809 0.692535 -1.73851 -1.70145 -0.33337 -1.64491 
1.14549 3.8605 -6.23393 -1.20429 -2.2023 -2.73761 0.774406 0.661674 0.539019 
2.53224 0.219292 2.55608 0.0353978 5.49397 1.94054 -4.44546 0.310051 4.80552 
5.33738 3.3986 4.9258 2.16486 0.0246532 3.443 -0.264171 -0.247264 -0.27146 
2.25769 5.05495 -1.17085 -2.00542 -0.794047 0.536703 -0.535707 1.28696 -4.59444 
-2.19744 2.97933 -3.67744 -2.30951 1.14884 1.92636 -0.874374 -0.0358688 -0.913189 
1.17263 1.28259 -1.01296 -0.190313 -0.201188 -1.59943 -0.978893 -0.103105 -1.06178 
2.24899 0.987985 4.16167 0.157069 0.320036 1.04137 5.53423 9.92482 0.959892 
-4.52611 -5.4633 -2.82903 -1.33378 -0.987889 -2.13358 -0.344465 -0.962171 2.44195 
1.04835 -1.71662 2.54446 2.3244 7.23875 2.90049 1.35209 -0.342375 -0.717364 
-0.328522 0.0391711 1.85671 0.206333 -0.107128 -1.47681 2.66589 -1.13487 -1.36963 
5.74975 4.85062 4.29187 0.251645 -0.173501 0.556957 0.118635 -0.182735 0.351529 
0.0057518 -1.75224 -1.32304 -1.59827 -3.48207 -3.23943 -8.0009 -9.00597 -6.01661 
-6.20808 -8.58301 0.0300033 0.1099 -0.0964624 0.206744 0.404937 0.284239 0.292416 
-0.555987 -0.634003 -0.401044 -0.233181 -0.299615 -0.312044 0.140124 0.292397 0.857721 
0.179554 -0.248286 -0.560761 0.147533 -0.0693156 -0.496377 -0.254452 1.62933 0.710557 
-1.48256 -1.81994 0.10872 0.852423 3.74637 4.25616 -1.93756 -7.37743 -2.82007 
-0.62234 -0.388566 8.25288 7.42461 0.795088 0.336006 0.290519 1.5842 -2.40361 
-0.408548 -7.68385 0.870063 6.73578 7.49217 8.80633 -0.785764 -0.776123 -1.1814 
-3.43844 -4.99849 -5.20354 -1.83759 -3.57738 -1.26708 -2.06145 -0.372287 -2.1179 
0.427696 1.67028 -2.49046 1.13915 1.24514 0.257289 0.161034 3.07472 1.58048 
-1.94794 -1.84963 -0.865291 0.178916 1.17888 -0.979555 0.0413569 -0.290239 -0.0877807 
-0.115428 -0.115536 0.861551 -3.36192 -1.25686 0.637616 3.38122 3.87384 3.24088 
1.64711 -6.04972 5.41728 4.24812 7.86015 5.34362 4.41953 5.97368 -0.347694 
-0.358953 -0.363289 -0.38889 -0.322941 2.26601 2.15961 -3.26131 1.2188 -3.53758 
1.68738 3.54662 0.505179 4.80098 7.26479 0.865087 2.33167 0.496105 0.0331745 
-0.155572 -0.0700866 -0.288129 8.77836 2.75671 -0.331079 -2.53397 0.702216 0.846353 
0.315696 0.281388 0.417322 -2.54186 -1.03331 -2.08882 -2.90961 0.756238 1.25201 
1.55756 1.11141 3.09531 -0.321262 -0.224569 -0.230691 -0.152591 0.659271 -1.82533 
-1.95043 0.489854 -0.230316 -0.167582 -0.203038 -0.657867 -0.227768 0.0178316 1.36523 
1.28546 1.88399 1.69968 -4.19944 6.60363 -5.19649 -1.24879 2.02242 6.99864 
8.0774 4.10411 -3.80126 7.71159 -0.274046 -4.38501 -0.252255 -1.33883 -1.5521 
-0.191392 -0.516456 -1.63557 -1.24485 -1.51814 -1.13137 -1.30321 0.218884 0.332239 
0.24483 0.266608 5.22799 -2.52873 0.754024 -0.130178 0.0939488 0.0105786 2.53115 
3.16555 2.11125 0.767474 2.60863 0.890167 1.69313 3.29589 -2.52575 -1.48372 
-0.815046 0.0485285 -0.707207 0.0926821 -1.11975 -0.863144 -0.297566 0.644019 0.179709 
2.14332 -0.188553 -0.173303 -0.177233 -0.234686 -0.196006 -0.428672 0.0241663 0.75884 
0.336204 0.690527 1.1389 1.4369 0.647619 -0.915355 1.42977 -0.034256 3.69062 
3.78866 2.87041 2.68848 -0.746063 -0.758501 -0.693087 -0.192812 0.0837917 0.259347 
0.0745845 0.131777 0.131542 0.0437876 1.23009 1.28076 0.496271 -0.261232 1.0816 
0.133645 3.73111 4.11819 -2.49909 -1.78468 4.41756 0.330472 3.12968 4.04345 
-0.00190264 -0.306852 -0.317245 -0.180625 -0.126653 -0.0453517 -6.9125 0.257142 0.379322 
0.103481 1.39665 1.38512 0.797074 0.928673 1.06029 0.917053 0.810982 4.29268 
-0.317833 -0.362053 0.191638 0.2415 0.34441 0.382893 2.66068 -0.707633 -0.235728 
4.41594 -8.3979 2.25931 3.22191 0.45594 -0.0805274 0.578787 0.302667 0.52807 
-1.28186 2.63558 -0.392394 -1.6471 -2.35228 -1.55116 -2.19785 -0.741355 -0.898857 
-1.99659 -3.01478 -0.732466 -0.822406 0.650949 1.29621 0.10608 -0.47548 -0.85953 
-0.442361 -0.310435 -0.75793 -0.68267 0.993495 0.85901 0.646256 1.11248 -0.648263 
-0.19035 -0.148758 -1.87287 0.0985538 1.49156 0.130714 -0.680289 -0.378134 -0.75464 
-1.04163 -1.50176 -3.19478 -0.768148 0.000331385 -0.112805 -0.173122 -0.19955 4.37536 
-0.473522 -0.0728039 0.120083 0.266714 0.61597 0.262495 0.227017 -1.01492 -1.33094 
0.894014 0.431849 -0.583048 -0.72114 0.647925 0.231939 0.167979 3.45199 -1.95394 
-0.986509 1.33585 -0.0851997 -0.344195 -0.346964 -0.32851 -0.352148 1.00673 0.557706 
2.20313 1.80939 3.10871 2.63433 -0.0544277 -0.221616 -2.15839 -3.74711 -2.7241 
-2.35612 -2.31482 -0.825898 -0.156515 -0.456675 -0.446874 0.993647 1.01546 0.795469 
1.02801 0.409815 0.331362 -1.51437 0.797378 2.25162 1.64169 0.810141 0.74717 
1.09254 4.89946 -4.74709 -4.2079 -0.251126 -0.139856 0.997355 0.875906 -0.825516 
-0.0778095 1.04185 -0.524442 -1.28009 -0.903417 -1.57167 -1.98801 -1.578 -1.32951 
-4.88227 -1.30429 -3.08343 -1.99578 -3.19104 8.41919 -1.01966 8.48244 6.36421 
5.51175 6.76393 -2.51835 0.118927 -0.504352 -0.248471 -0.341363 2.93772 4.1728 
1.22206 3.33252 1.83591 -4.02336 2.02873 0.344009 -4.61657 -0.840896 -1.06673 
4.27634 -2.02779 -1.4891 -1.24012 1.14548 -1.5422 0.0772801 0.0856427 0.0768117 
-1.77927 0.290092 0.365071 0.320152 0.374629 0.498381 -0.588867 -0.578261 -0.23575 
-0.123126 -0.138777 1.39573 0.381417 1.10445 -0.504038 2.05692 0.294084 -2.25785 
-1.96586 -3.07058 -0.0910323 -0.62067 -0.366321 -2.67058 -1.63651 -2.45925 5.97764 
-1.90293 -0.795788 0.884453 -0.160304 0.338284 3.75017 -1.08035 -0.218782 -0.917077 
0.00379415 -0.106041 -0.132073 -0.36554 2.15851 2.76285 -1.56857 -1.39162 -0.644609 
0.640969 0.174381 -0.0848486 -4.07774 -1.56696 -1.11687 -1.52253 -1.50349 -4.23267 
0.102033 0.162922 0.108281 0.235251 0.0926226 -0.520778 -0.535997 -0.472278 -0.470989 
-0.459943 -0.233378 -1.56685 -1.22201 -0.197689 -0.526286 -0.497327 -0.433309 -0.281488 
-0.45638 -0.430144 -0.360482 -0.188993 0.0548543 -7.99415 -0.485393 1.713 2.41131 
2.41202 -5.29031 0.715015 1.39164 -2.38348 1.41477 0.876235 -0.0877219 0.599663 
1.0323 -0.81508 -4.33619 -1.49594 -2.75171 0.0177657 0.809128 0.180823 1.61883 
-3.38005 -0.011286 1.89899 5.59618 8.85977 -3.61972 -5.42844 3.86145 -2.24698 
3.90787 5.2969 9.45513 -0.179042 0.197734 -0.191586 -3.89405 1.15764 0.048853 
-0.485543 -9.78745 0.169598 0.538051 0.211111 1.34896 0.984209 4.3446 0.828525 
2.44596 2.02635 0.841895 1.10902 1.81819 1.4258 1.27892 1.52802 1.0502 
-1.27046 -1.15322 -2.20566 -3.22508 0.121975 1.74452 0.371036 1.81596 -1.81422 
-2.43039 5.19145 -1.03513 6.17791 -0.248092 1.69869 1.82931 4.67415 3.35964 
1.25218 -0.435254 -1.17639 -0.170148 -0.592999 -0.693432 -0.221934 0.736688 -1.50665 
6.56954 -2.7155 0.327261 1.56008 0.799017 0.891721 0.664064 0.562539 -2.10577 
4.74525 0.578589 0.0974626 0.162603 0.24603 -1.23315 -1.05453 -0.222 0.54517 
3.6802 2.14351 4.77465 -0.780963 -4.28543 -0.89272 0.992767 0.762651 -2.75127 
5.13475 4.1334 3.15831 0.363535 0.129602 1.24358 1.36215 1.02978 -0.488607 
-0.155993 0.465891 -0.725657 -0.38783 0.105471 0.381403 1.2865 1.43378 1.35568 
1.66746 2.09177 1.17703 1.51545 5.36606 -3.14777 -2.76831 -1.10048 -0.449323 
-0.513406 -0.426318 -0.908499 -0.177621 -0.18197 -0.201896 8.24655 -0.874868 -2.41317 
1.30917 0.743997 1.98437 -2.96614 1.98361 -3.44071 1.70765 0.907972 0.787766 
1.17655 0.86274 1.03724 -1.7355 -0.690466 0.688687 1.51478 0.306297 0.719145 
0.814136 0.59371 0.26762 0.233416 0.341775 1.07911 1.50017 1.55541 -2.07814 
7.21007 -3.93446 6.01314 3.34059 3.119 0.761874 2.02375 -0.692915 -0.346204 
-0.186742 -0.330666 -0.332165 -1.85017 -0.189381 -0.203828 -1.10891 0.755946 -5.44776 
-5.69316 -3.69314 0.0662668 2.12453 5.28881 -1.61587 3.64411 4.74886 0.500739 
-1.0743 0.991619 -0.964993 -3.17894 -0.601997 -0.615117 0.185031 1.35097 0.851741 
0.438525 1.36026 0.588051 -0.0984251 0.170255 0.649561 -2.24789 -1.69328 0.435833 
-0.0827962 0.591369 0.426797 0.788671 0.395862 3.62788 3.71394 1.74628 -3.26342 
2.06297 1.22079 3.15133 11.1529 -3.16789 1.50849 0.2249 0.165407 3.77621 
2.79135 2.73327 1.9886 1.38851 2.48356 0.0782839 1.4082 -1.13909 -1.77238 
-1.3638 0.249648 -0.250036 0.305628 -0.281727 -1.05301 -0.951783 -0.180152 -0.540722 
-0.267651 -0.188724 -0.505081 -0.0584885 -0.162395 -0.191323 -0.173449 -0.638889 -0.215666 
-0.523218 -0.856467 -0.552145 1.14576 2.5329 3.2969 2.94341 1.05906 0.492169 
-3.31755 -1.22393 -1.16125 4.31151 0.0879979 2.28337 -2.61666 4.8169 -8.10258 
4.78636 6.52735 0.17028 0.651132 0.655661 0.712389 1.73359 -0.262126 -0.709137 
-0.535819 -0.181238 -1.38755 -0.0742745 -0.0187035 -0.492464 -5.43118 -6.75493 3.25812 
-6.40827 -1.58009 -0.7596 -1.64872 2.19498 2.25727 -2.78671 -1.40573 -0.208242 
-1.70758 -1.23277 -0.170414 -0.554981 -0.477348 -0.266628 -0.22931 1.24112 1.6039 
3.20646 1.90848 -0.818971 -0.812657 -3.81903 5.47621 4.22355 4.43168 0.275469 
-0.171552 -0.860384 -0.298591 -0.446565 -2.46897 -1.27786 3.06535 0.0681603 -2.83759 
1.39632 0.00729388 1.60516 0.318807 -0.100796 0.213247 -1.21127 1.79963 0.407568 
2.14652 2.65936 2.10575 1.84832 1.85099 -2.30277 2.48976 -1.85097 -1.26228 
3.59507 0.982946 0.0676078 0.273888 -0.289889 0.0715733 0.0321687 -1.73732 -1.46933 
1.41869 -0.863551 2.00599 -0.489797 0.139325 -0.109087 0.973038 1.53153 1.73227 
0.0782145 -1.6351 1.66874 1.87259 -4.22637 -4.63479 -3.4244 -3.46171 -0.0473794 
-0.187856 -1.88561 -2.04282 2.20111 -0.0801592 -1.52501 -0.711984 -1.511 -1.25875 
-1.36728 -0.190139 -0.325532 1.11515 0.352915 0.185396 7.10498 3.9433 -3.9795 
4.05261 -5.1941 4.19594 4.64431 6.65848 6.20942 4.14859 0.0898285 0.741978 
-0.99606 -1.63743 -1.52524 -0.566557 -0.753368 -1.40575 -1.50715 -1.85608 0.234352 
0.513533 -0.606429 -1.22338 -2.76365 -1.72185 -0.530046 -1.26141 -0.199484 -0.340954 
-0.277292 0.358262 1.05246 1.11535 1.19524 -2.4577 0.779154 -1.93809 5.09445 
5.21354 -1.93948 -3.21614 -6.81896 -4.62376 -1.5666 -0.966373 -0.988783 -1.42988 
-1.40398 0.00762942 -1.02903 -0.422784 0.586267 -1.28282 -0.868613 -0.210972 -0.373736 
-2.08544 -0.91936 -2.0429 1.71466 1.82816 2.00893 1.76852 1.49156 0.987808 
4.30828 -2.36307 -0.256769 8.25157 -1.9477 9.186 -2.05123 5.80854 -2.83984 
-4.32658 -4.06181 2.3634 1.79286 1.2998 1.07925 1.21607 1.22104 0.569152 
0.84099 1.79833 1.7384 2.02074 1.55857 0.636856 1.52737 0.346884 0.324533 
1.28646 1.10278 1.50099 -0.60332 -0.53013 -0.604254 -1.06315 -0.496093 -0.622122 
-1.01608 -0.634462 -1.72154 0.138207 -0.00334971 -0.0764721 -1.74785 -5.02258 -3.39324 
6.66184 0.438516 -3.15366 1.32086 1.81482 -3.01023 1.47338 0.751761 0.165491 
-0.335256 0.221838 1.25164 0.125515 0.235024 -0.290647 0.372613 0.288758 0.882538 
0.159895 0.067813 0.178827 0.625726 -0.770638 -0.429998 0.50548 8.70169 5.87465 
2.93703 8.9872 7.1574 6.11243 5.88453 8.54324 7.72595 -0.0253429 3.96366 
3.81823 1.92472 1.70332 2.35259 4.07369 4.46704 5.0061 4.00554 1.27376 
1.10953 0.841248 0.241186 -3.39852 0.312536 0.121466 0.181861 0.161557 0.0250588 
0.0582506 0.236364 0.2752 0.0819365 0.44241 0.433012 0.515681 0.404133 0.567389 
0.391282 0.9197 0.0151426 0.539701 0.372532 0.75395 0.761645 -1.16392 -1.65612 
-1.30409 -0.732572 0.940788 -0.332274 -0.475145 -0.589152 -0.518846 -1.02813 -0.991277 
-0.259311 -0.213472 -0.25579 -0.582582 -0.132676 1.06453 2.46478 1.36441 0.0644648 
-1.63091 -1.67716 0.980636 1.51184 -3.00101 -0.679946 -1.99342 -1.66282 -1.88128 
1.93758 0.236436 1.63089 1.65733 1.42449 1.40949 1.38165 1.54431 1.55946 
0.682016 1.22169 -0.955262 -0.393928 -0.471985 -0.546985 -3.14605 -1.18502 -0.847994 
-0.906135 -0.296286 0.426229 -0.0975087 -0.224817 -0.183278 -0.26947 -0.147207 -0.557278 
1.43928 2.43671 2.65845 2.81066 2.15858 2.51791 2.93092 -4.31274 2.28613 
7.70662 1.47396 2.50983 9.26275 7.99423 7.55617 -1.41954 -0.259137 0.287107 
0.239397 -0.0485419 0.163412 0.188241 0.190495 0.235893 -0.0993114 -0.120959 0.659649 
-0.665658 0.562767 -1.47044 -1.98757 -3.57198 -0.678541 -0.930336 1.06675 1.25799 
0.966114 1.18498 1.9391 0.940964 1.17212 0.935321 1.01264 0.680912 -3.57604 
-0.0464042 -2.26778 -2.67576 3.54116 1.11295 4.26614 0.583484 0.766489 -6.5624 
4.84127 4.97406 4.25069 1.48913 3.33834 -7.29006 1.68632 -4.18907 1.92742 
2.99984 3.46038 4.92398 4.62669 2.96692 5.25936 -5.38246 -1.02682 -0.174828 
-0.437169 -2.81806 -0.503403 -3.18051 -1.08877 0.263372 0.256848 0.409772 -0.100801 
-0.0635696 0.416753 3.34668 -2.01804 1.05626 5.08831 4.09262 -2.50339 -0.0266705 
-2.91154 0.160074 -1.68886 -0.550667 -0.0244565 -0.418949 -0.169131 0.137683 -0.231682 
0.268612 -0.0225848 0.194394 0.0416578 -0.0449055 -0.195846 4.61255 -0.0386274 1.56983 
-3.82521 0.719545 -1.92796 -1.72053 -1.75934 -1.41017 -1.51275 -1.08571 -1.11362 
-0.968382 -0.788474 -1.88551 4.85985 -2.01637 0.0548315 -2.60466 -1.38712 -3.21098 
-2.60842 -3.56746 -2.08437 -2.24326 -2.2697 1.65219 3.18813 2.61302 2.69447 
-1.16351 -2.90461 3.8579 -1.99549 -0.0275174 3.01461 -0.430376 -0.6196 -0.410708 
-0.234869 -0.321768 0.0513406 -0.249072 -0.170654 -0.321267 0.942479 0.287208 -0.315634 
-0.16379 -0.378139 -0.275822 4.45563 5.45805 3.51159 -0.995002 5.36404 -3.54808 
-3.95008 -1.52069 -0.357737 2.4323 2.62014 2.37909 1.91024 0.793711 3.64189 
3.20851 1.89417 1.72955 1.25595 -3.57049 -2.02071 -3.92241 -0.928719 -1.72961 
-4.37786 0.982271 -5.23688 1.21948 1.72546 0.997407 0.598202 1.40668 -0.642876 
-1.40144 -0.757761 -0.764291 -1.1988 -0.582301 -0.675223 -0.789116 -0.874862 0.969874 
1.05805 1.76193 1.58117 1.85887 1.05969 2.00627 1.7359 -1.12974 -1.14015 
0.840391 1.27057 0.116527 -1.30499 0.162403 0.389779 -0.0974121 -3.95399 -4.84667 
-4.9679 -5.15884 -0.897246 -4.01709 2.37411 -2.3702 -3.28789 3.68256 -0.171812 
-0.156674 0.937658 1.01912 0.570825 0.819119 0.851254 0.755981 0.70556 1.39413 
1.30977 1.26234 2.14546 -0.0541548 -0.408563 -0.339323 -2.87919 1.92371 4.7701 
-2.90773 -2.82789 -2.366 -1.83597 -1.2746 0.464312 0.746423 0.143988 1.12809 
0.296025 0.537892 0.583059 0.857724 -1.2583 0.146233 -0.231648 1.12498 -2.32779 
-1.08608 -0.563691 -0.7564 -0.694185 -1.04347 -1.69385 -1.41465 -0.149469 -0.146276 
0.127443 0.396149 0.00701443 -0.152748 -0.309673 -0.47659 -0.496948 -0.546601 -0.382051 
-0.153872 -0.42022 -0.225071 -0.367769 -0.525089 -0.273074 -0.453201 1.97027 2.32001 
0.875041 1.63716 -4.18639 1.52683 1.73436 1.53906 0.189835 1.63537 1.02776 
-0.105226 0.870681 1.04167 -0.390522 -0.356757 -0.396719 -0.354629 -0.384123 -0.290867 
-0.510478 -0.247672 -0.356725 -0.400538 -0.353901 -0.473467 -0.449371 -1.21288 -0.174044 
-0.185422 0.10386 -0.214107 -0.0158013 -0.251894 1.76276 3.34734 -0.482543 3.56356 
3.20218 3.70124 0.821209 0.718932 -2.27344 0.0877254 -1.90566 -0.517763 -0.175985 
-1.89276 -0.554345 -3.20591 -4.12984 -2.13788 -0.741231 -0.500304 -0.806119 -0.214867 
-0.129638 -0.537019 -0.24636 0.00971724 -0.205662 -0.21121 -0.107977 0.458274 0.465665 
-0.294684 -0.450333 -0.285866 -0.825612 -0.31411 -0.363824 -1.00667 -0.281275 -1.72704 
-0.239886 -1.55363 -1.33936 -0.999974 -0.118263 -0.750765 -0.43994 -1.26697 -0.623918 
-1.42714 0.243429 0.212598 0.499923 -0.967836 -1.49992 0.154064 0.585423 0.222058 
0.898932 1.05323 0.929741 0.971335 1.47817 1.17331 1.52414 -1.0719 5.5776 
6.60828 5.94604 6.36775 5.82854 1.59603 0.957764 -1.04667 -1.03059 -0.385843 
-0.46581 -1.00402 -0.189704 -1.04715 -0.203272 -1.31719 -0.350505 2.3352 3.00279 
2.73465 1.99677 2.59952 -4.44614 7.03322 5.44581 8.1516 3.24461 3.78496 
2.63992 2.03287 -0.258876 5.64348 7.88655 8.15892 0.467542 2.00095 4.26172 
2.86172 -0.222422 0.068301 -0.125296 -0.211041 -0.29744 -0.192035 -0.184941 0.0073452 
-3.03179 0.713246 -5.26269 -6.64706 1.73483 3.33369 2.73341 5.21473 -0.790393 
-0.851221 -1.01059 1.66412 0.593942 1.0201 1.65684 0.724178 0.740496 0.353091 
0.697547 2.54891 -0.205064 -0.207728 -0.183459 -0.165485 -0.196206 -0.181655 0.753934 
0.345639 0.958658 0.983332 0.666959 1.22617 -0.412099 -1.41161 -0.2373 -0.222247 
-1.09718 -0.593054 3.97167 4.88379 0.491742 0.284872 0.0357858 1.40054 -2.52339 
-0.0698417 -1.22905 -0.231577 -0.17492 -0.174221 -0.0751966 -2.21542 -0.0698297 -0.633857 
-0.405225 -0.697189 -0.834611 -0.703752 -0.771955 0.218999 0.225267 -0.383732 -0.502416 
-0.449359 -0.403437 -0.216682 -0.163095 -0.416085 2.10623 -1.26644 0.0737199 0.211078 
-0.17637 -0.206343 -0.552275 -0.91261 -0.801815 -0.241159 -0.438621 -0.259886 -0.206644 
-0.258049 -0.387407 -1.04489 -3.4381 -0.578377 -0.52247 -0.436533 0.453717 1.48861 
1.12675 1.29183 1.15555 1.15783 -1.92047 -2.32414 -1.9515 -1.85854 -1.40931 
-1.51346 -2.07692 -2.62589 -0.734437 -1.41409 0.277114 0.260054 -0.262139 -0.55326 
0.108344 -0.0342986 -0.00831906 0.0448034 -0.27242 1.2424 -0.114664 -0.161551 0.00635062 
-3.92458 2.62705 2.31886 -3.88656 8.41248 7.68714 -0.000702389 0.0133616 0.547955 
-0.0758396 -0.132548 0.163866 -1.55544 0.313031 0.10051 6.49391 7.46253 7.81445 
5.05505 4.71111 0.500567 0.62136 0.203132 0.657888 0.581266 0.5829 0.400647 
0.282544 1.19853 0.274101 0.0979067 0.393885 -5.06149 -6.03941 -0.374605 -0.242598 
-0.080001 0.0574924 -3.17035 -2.68618 2.88101 4.95438 3.45107 1.79492 -3.33982 
-1.05306 -2.80565 -2.07616 -1.84853 -0.433569 -0.504143 -0.506766 -0.634964 -0.582654 
-1.75764 -1.45306 -1.70494 -1.89043 -1.73306 -1.76069 -1.62 -2.7962 -1.04566 
-1.80258 -1.50255 -1.75401 -0.607953 -0.976272 -0.424805 1.27202 -0.0460829 2.75432 
-5.1031 -0.627862 1.13268 2.40953 -0.908286 -3.85429 -0.0358602 0.0853561 -0.0633077 
0.957199 0.798248 0.274244 -0.40132 -0.803499 -1.23711 -1.1906 -1.14789 -0.274904 
-0.842428 -0.520483 -1.24376 -1.30654 -4.53684 -1.07163 -2.09956 0.300734 0.22303 
0.186847 0.317099 0.298045 0.404204 3.82751 2.66495 6.24144 7.53178 5.0044 
4.91994 5.89488 5.81289 6.1302 -0.92474 0.933742 -0.123702 2.37543 0.632507 
1.01295 -0.815153 -4.5564 -1.70183 -2.89479 0.0780561 -0.162158 -5.47539 0.0580939 
2.08528 2.2657 2.4479 2.1513 2.17208 -1.125 -1.20941 -1.346 -1.25604 
-1.35225 -1.44387 -1.51437 -1.47514 -1.37408 -1.30628 -1.34418 -1.65883 -0.745529 
-1.81049 -1.50435 -1.58056 -1.14532 -1.36077 -1.63007 -1.83776 -1.60271 -1.70083 
-0.699215 -1.13753 -1.78686 -1.36741 -1.01589 2.85848 -2.48698 0.929472 -1.8148 
3.40051 3.42166 1.63674 3.25457 -0.231113 1.74581 1.86156 1.78911 2.03516 
1.37916 1.79254 0.826241 1.27403 3.39613 5.53707 -3.5905 -8.58073 -1.26338 
-0.232915 -0.898055 -0.187788 -6.99946 -5.91048 -1.13789 -7.02215 -2.10888 -0.25695 
-0.104395 1.33465 -6.04768 -4.73418 -2.3639 -1.30553 -4.12449 -0.287398 -0.284841 
0.485027 -0.283153 -0.289031 -0.268677 -0.482102 -1.03429 -4.50887 -1.76294 -1.15208 
-4.35104 -1.38282 -5.51276 -6.00893 -4.29063 -6.19239 -6.53586 -6.19798 -0.411603 
-2.45794 -0.696807 0.444259 -0.573858 -0.700173 -3.39555 -8.47987 -8.56087 -5.81986 
-5.16953 0.326186 0.296635 0.318261 0.924536 0.537239 1.10544 0.410435 1.00715 
0.820751 -6.76206 -5.99191 -6.36527 -5.35821 -6.2639 -6.55944 -6.84398 -3.60082 
-3.11936 0.481353 -1.12222 -0.175096 0.00223286 0.756134 -0.0958499 -0.159813 -0.338392 
-0.00193523 0.141737 0.205135 0.201191 0.0538581 0.218098 -0.149627 -0.37341 -0.354681 
-0.328784 -0.427575 1.08884 0.0484005 -0.0641403 -0.420385 -0.385082 -0.437254 -0.469683 
7.77929 7.73907 8.37551 8.23823 -0.162467 -0.213019 -0.036583 0.43866 0.39661 
0.382775 -0.204811 -0.243153 -0.046395 0.295579 0.230508 0.389462 0.364096 0.329154 
0.545977 4.02891 0.55445 0.440421 2.1445 1.54711 1.665 1.80429 1.35685 
-0.0550417 0.0900329 -0.228679 -0.357307 -0.206481 -0.230429 0.0141933 -0.00633601 -0.00789294 
0.000272512 -0.0403653 -0.160496 -0.130077 -0.142251 -0.994983 0.643326 1.23933 0.148171 
1.52346 1.50034 1.02179 1.53767 1.28395 2.34433 2.15298 0.736831 1.1146 
0.186992 1.22275 0.471608 0.473373 0.515316 0.338375 0.452835 0.424717 0.332073 
-3.54732 -2.12374 -1.51044 -1.06266 -1.24594 -1.36519 2.71415 3.03648 2.81991 
2.09186 2.75585 1.99429 1.98004 0.798684 0.520772 0.499359 0.345304 0.496379 
0.429713 1.49288 0.737105 0.0232263 1.02162 1.09054 1.73667 0.537954 1.5975 
1.45109 1.21762 1.75214 1.32516 0.911657 0.555557 0.951314 0.258342 0.292062 
0.402475 0.334957 0.311967 0.225355 0.155105 -0.96532 -0.497535 -0.721284 -0.637928 
-1.05465 -0.250624 0.436416 -0.284509 0.282707 1.09622 -0.319443 0.113656 0.0820561 
-0.04206 -0.0177788 -0.353122 0.616676 -0.182542 -2.10988 -1.80002 -0.344861 1.32597 
1.29481 1.33113 0.418916 1.21423 1.04655 -1.57297 0.30258 -0.342405 -1.1706 
-1.04357 -1.10218 -0.958812 -0.280086 -0.265755 0.63607 3.30708 2.42468 1.35796 
0.72136 2.07126 0.761313 0.374119 4.45894 0.465525 0.348573 0.400233 0.575512 
0.391854 0.232413 0.419708 0.530292 0.448407 0.536472 0.360034 0.33477 0.560672 
0.624188 0.605918 0.564773 0.443498 0.261856 0.568361 0.67421 0.320565 0.791696 
1.46443 4.2197 0.914989 3.28834 1.6309 1.46265 1.6992 0.543394 1.08021 
0.646657 0.432061 0.904453 0.955017 -0.0247722 0.114516 0.0440168 0.00146441 0.0751736 
-0.181016 -0.472646 -0.160691 -0.197595 -0.573336 -0.372473 -0.71413 -0.591147 -0.33764 
-0.946675 -0.79257 -0.765493 -0.95078 -1.48916 -0.894869 -0.376493 -1.99362 3.29037 
-1.3707 -0.26816 -0.136526 -0.00941219 0.113333 0.0223885 -0.0816421 -0.0719453 -0.0482716 
-0.325677 2.10642 2.57696 2.7993 2.81296 2.80421 2.41791 2.22833 -1.35683 
2.93189 3.83481 0.0495325 -0.137292 -0.191176 -0.172151 -3.32364 -0.130664 1.01099 
0.922042 0.899257 0.674164 0.859178 0.836393 0.776256 0.535077 0.441809 0.220852 
0.852309 0.241025 0.150838 0.168025 0.631361 0.986781 0.821591 0.452693 0.473193 
0.0784842 1.05709 1.17624 0.396932 0.233864 0.401761 0.452203 0.536974 0.164743 
0.304312 0.104009 0.593031 -0.602249 -0.527376 1.4065 -0.925011 -0.236317 -0.524632 
0.624013 0.444466 0.426454 0.401393 0.436055 0.390906 0.362463 0.332627 1.20861 
-1.8936 -4.2538 -0.676154 1.97812 7.6966 6.41994 -3.38496 6.57209 4.21897 
6.77127 2.37487 2.22374 2.70839 2.84524 2.90949 3.42602 0.770533 -0.639749 
0.0536512 -0.082416 -2.43479 -0.465159 -0.435394 -1.29814 -1.36013 -1.70597 -1.01623 
-1.31882 -1.35589 -1.06096 0.348263 -0.091388 -0.642514 -0.68448 0.476796 -0.0183416 
0.768942 8.66074e-05 0.0770994 0.574453 -0.0542341 0.42469 -0.0782328 0.0389476 0.100274 
0.784625 0.663281 0.571243 -2.45609 -2.97947 -1.70459 -2.41997 -4.74501 -3.04252 
-0.640243 -1.0537 -0.316273 -0.429195 -0.386301 -0.265115 -0.183209 -0.790035 -0.165431 
1.81824 1.71751 1.99704 0.00312647 1.46023 1.89167 2.04012 1.50965 1.44709 
1.76454 -0.053397 -0.299341 -0.523778 0.0419647 -1.11039 0.602153 0.298437 0.346261 
-0.229881 0.224455 0.308391 0.192359 0.280288 -1.64967 0.714496 0.016184 -1.55043 
6.83776 1.13986 -0.732044 -1.13658 2.23348 5.44467 3.55084 2.96634 -1.14731 
-1.85948 2.59101 5.08514 5.56668 3.69964 0.77615 2.28303 0.247163 3.07242 
2.75074 0.993821 3.92762 2.79093 -0.174011 -1.55801 -1.31395 -1.58351 -1.6812 
-2.05957 -1.62328 -1.99701 -1.74944 -1.03145 0.381609 0.0465856 0.0743526 -0.0734559 
1.02434 -1.5658 -1.88651 -1.62175 -1.77758 -1.17679 -1.66533 -1.72287 -1.56795 
-0.543156 -1.25073 -1.00483 -1.2908 -0.319748 2.26668 1.3983 1.97577 2.9046 
1.24957 1.58805 -2.37269 -0.615848 -1.40784 0.209461 -1.43093 -2.34508 0.51042 
-1.44018 -0.195995 -1.48833 -1.84408 -1.72682 -0.846936 -0.905085 -1.42866 6.96406 
-2.75701 6.84031 2.2764 2.51043 4.46831 0.558087 1.13153 1.27714 0.893649 
1.38515 0.277431 1.76974 1.19136 1.17213 2.62322 -1.25657 0.761191 1.68723 
-3.66567 -2.28625 -3.48112 1.95655 0.906382 2.17124 2.24396 2.96421 1.85348 
3.09137 2.33953 -0.958637 -0.400395 -0.575091 -0.625615 -0.5174 -0.459718 -0.523807 
-0.271418 -0.581256 -2.51658 -2.44417 -1.80014 -1.86929 -1.8381 -1.75626 -1.71148 
0.670676 0.289498 0.449552 0.355874 0.348647 0.361642 0.410085 0.331671 0.34002 
2.60955 0.382756 -0.407218 -0.222625 -0.796517 -0.666854 -0.638197 -0.330457 -0.357379 
-1.22094 -0.362409 -0.181194 -0.457023 -0.830657 -0.758914 -0.405801 -2.65236 3.63578 
-1.89966 -2.18649 -0.936031 4.56323 -0.331602 2.46944 0.350987 0.609244 0.761001 
-0.321249 -0.484815 -0.262055 -0.238854 -0.181423 -0.264743 -0.278789 1.12508 1.10083 
0.81325 0.641722 1.39152 1.34215 0.951821 1.33806 1.24967 1.41591 1.04737 
1.18739 1.518 2.09524 1.62737 1.86143 1.77561 -4.73884 1.5333 -1.37082 
2.28114 -8.79772 -0.129136 -2.22198 0.40512 4.19179 0.801961 0.439764 1.15935 
0.301404 -0.184332 -0.52042 -0.267957 -1.18691 -0.625772 -0.620695 -0.0826857 0.347894 
2.13009 1.36775 -0.928686 3.5712 -1.17453 -1.22152 -1.49708 -1.44641 1.55989 
5.15259 -0.896804 7.09912 2.78022 3.4421 -0.0222798 -0.374602 -2.52678 -2.84437 
-6.52261 -6.06497 -3.49901 -4.05871 -3.85496 -2.83842 -3.53189 -0.610671 -0.41771 
-0.458293 -0.221677 -0.275563 -0.291034 -0.328035 -0.404005 -0.47173 -0.228097 -0.456701 
-0.0965315 -0.509974 -0.470298 -0.602582 -0.495662 -0.441585 -0.395352 0.323652 -0.0233466 
0.114167 0.136272 0.0948386 1.35453 -0.0373382 -2.36347 -1.27549 -0.401753 -1.22792 
-1.93672 -1.72184 -0.668843 -0.419916 0.137499 0.765761 0.485751 1.44662 1.00413 
1.23345 0.896191 1.75015 0.928935 0.994305 -0.508267 1.13793 0.725444 0.639402 
0.616785 0.94846 0.844835 -3.65617 -4.12021 -4.1828 -4.27278 -3.14448 -2.5987 
-4.08191 -3.59281 -2.50117 -4.25589 -2.1711 -1.53424 -1.05844 2.92067 -1.60623 
-1.92386 2.67795 -6.06353 -6.04675 -3.78213 0.272391 0.259406 0.288881 0.59551 
0.36746 0.871028 1.77142 1.02697 -3.48433 -4.19924 -0.0859234 -1.38348 0.349218 
-3.00765 -3.61952 -1.4232 -2.098 -4.28469 0.0765438 -2.49488 -5.03329 0.0939949 
-0.955004 -0.819325 -3.13346 -1.13174 -0.0790119 -0.332961 -0.385151 -1.24861 -0.832121 
-0.990406 -0.905299 0.627938 1.60968 1.96746 1.64799 0.312453 0.665283 0.33334 
0.460508 0.572648 -0.176225 1.16178 1.85156 0.952047 2.06673 2.17046 2.1039 
2.02917 1.87951 2.13147 1.99751 1.77353 1.78682 1.84363 5.26661 5.01558 
1.64472 4.29863 2.17314 2.11672 4.90857 -0.384566 -0.518105 -0.218228 -1.13457 
-2.58808 -1.17615 -0.97938 -1.15553 -0.449358 -0.229746 -0.319477 -0.427543 -0.653402 
-0.991856 -0.309023 -0.375541 -6.87965 -1.78854 0.392357 2.529 2.44597 2.37043 
2.43383 0.975291 1.75751 0.878209 1.20662 1.04599 1.50415 0.852921 1.22571 
2.04119 -1.52712 -0.54044 3.36587 -2.58108 -2.32944 1.7769 1.32648 0.991401 
0.815285 1.00644 0.904868 0.803277 0.684372 -0.238748 0.509727 0.332 0.770346 
-0.170789 0.215994 0.316975 0.33926 0.0138015 0.301184 -0.247228 -0.268706 -0.647835 
-0.254424 -0.172303 -0.193574 -0.188608 -0.238123 -0.597842 -0.194308 -1.25894 -0.609584 
-0.796626 -0.488606 -0.406788 0.195514 0.265978 0.416835 0.649034 -0.130313 -0.232346 
-0.381342 -0.430651 -0.578336 0.543721 -4.66643 -5.41871 -2.32324 5.49612 1.63884 
5.45649 1.69193 -2.90157 -4.58582 -3.76131 1.66459 0.948202 0.453203 -0.50402 
-1.08671 -1.09099 -0.213284 -0.337408 -0.615386 -0.295592 -0.250358 -0.150771 -0.348822 
-0.850359 -0.533562 0.0718101 0.83033 0.122742 -0.0950025 -0.277496 0.164876 -0.0921617 
1.4023 1.14722 0.620559 0.168386 0.589616 0.270043 0.537567 1.45661 1.29139 
0.587739 0.28169 -0.131161 2.71046 -0.479972 -0.249504 -0.473241 -1.11774 -0.0587563 
-0.971267 -0.235196 0.225581 0.463679 -1.09635 0.35562 0.835969 -0.351225 0.742315 
0.339114 -0.102221 0.0699032 0.813723 0.0663927 -0.079659 1.176 2.53296 0.335308 
0.8572 -1.06916 -0.949609 -0.193822 -0.972766 -1.04484 -6.66923 -8.18688 -8.28139 
-7.6582 -7.85273 -5.95914 -7.77428 -1.38427 -2.27444 -2.10213 -1.85356 -1.85767 
-2.49399 -2.75308 -3.42295 -0.934257 -0.933358 -0.965339 -0.28989 -0.372174 -0.485539 
-1.04298 -0.327959 -0.616429 0.165244 0.176547 0.180494 1.0091 0.489236 0.255742 
0.5641 0.841696 0.0104221 0.741145 1.05832 1.06787 1.22263 0.410098 1.81702 
0.870434 -2.49276 -1.70405 2.79684 -2.53779 -2.70928 -1.6664 -3.06163 -0.627801 
-0.719985 -1.46765 -0.427058 -0.937233 -0.677998 -0.857948 0.768712 1.23892 0.513173 
1.17329 0.742679 0.696292 -1.83549 -1.55014 2.66448 -0.127645 -0.118473 -0.271066 
0.0973288 -0.337626 -0.358352 -1.40444 -0.50817 -0.198081 -1.4567 1.14818 -0.873402 
-0.307887 -0.713586 -0.912826 -0.795363 -0.677662 -0.478136 -0.51193 -0.210952 -0.142442 
-0.21538 -0.206206 -0.234831 -0.349359 0.570008 0.149909 0.0129316 0.269552 0.0597022 
0.0707887 1.52699 0.137818 -0.148268 0.475851 0.392404 0.206927 0.236221 -0.039165 
-0.720094 -0.57431 -0.565492 -0.505192 1.12215 -0.131454 0.653073 -0.311788 -0.528383 
-0.510984 -0.367913 -0.411871 -0.42635 -0.220567 1.10486 1.85478 1.25823 0.751452 
2.99772 3.08314 1.06942 1.69557 1.38288 -0.354837 -3.10504 -0.410936 -0.654239 
-0.432901 -0.469132 -0.454804 -0.491035 1.21053 1.22716 1.18396 0.475547 0.435932 
1.14731 0.781473 -4.86014 -4.59463 -0.499862 0.324673 0.101603 0.0176248 0.0759468 
0.176172 0.132483 0.363609 0.266802 0.230072 0.233457 0.305831 0.266107 0.21558 
0.226877 -7.04941 -6.99056 -7.31524 -7.37502 -7.72809 -6.84929 -6.09063 -5.91056 
-6.97634 -3.90767 -2.59725 -2.1988 -3.3634 2.02866 -1.51179 -0.279817 0.0307746 
-3.59797 -0.125801 -0.12679 -0.188097 0.277515 0.0351774 0.787878 -0.330268 0.548213 
0.0683947 -0.0724949 0.143253 0.0523292 -0.17501 -0.817811 -0.666591 -1.20684 -0.143389 
-0.145199 -0.119782 -0.139602 -0.356383 -0.185563 -0.222212 -0.227246 -0.076668 0.430471 
-0.563115 -0.549147 -0.412802 -0.022044 -0.154152 2.80573 1.8923 -2.2962 2.89275 
-0.375776 6.61901 6.04397 -0.461031 0.821549 -0.0330228 0.512492 0.455644 -0.275452 
-0.306774 -0.391453 -0.453654 -0.275625 -0.469357 -0.136498 -0.382652 -0.439411 -0.625522 
-0.795438 0.665291 1.06474 0.910003 0.533487 1.46867 -1.24196 -0.858238 -1.7028 
-1.68739 -1.36249 -0.322903 -0.805847 -1.57275 -1.47117 2.1681 1.79712 1.5698 
1.0927 -0.318269 -0.99109 -0.317544 -0.501869 -1.48851 -1.27848 -2.42478 -0.547364 
0.0967661 -0.00113903 0.106313 -0.123789 -0.225821 0.0358914 -0.99902 0.67556 -0.131079 
-0.173106 -1.15939 -0.988201 0.754387 1.12966 0.734941 1.01527 0.597942 0.684683 
0.688591 0.749909 0.621167 -0.202116 -0.571462 -0.0835503 0.295444 -0.110384 -0.289474 
-0.291206 -0.422061 2.2626 0.898048 0.945047 1.01306 0.854798 -0.382269 -0.166633 
-0.216606 -0.149394 -0.312795 -0.32255 -0.281792 -1.45031 -0.615904 1.57018 0.0640013 
1.50309 1.81438 2.53012 0.976507 -4.63481 -6.47894 -0.0192405 2.17441 -5.3852 
-5.84819 -0.160562 -0.12548 -0.152353 -0.0785927 -0.222609 0.0451455 0.232772 -1.03888 
-0.439975 0.815569 0.0625503 0.092169 0.112882 0.0979323 -0.144034 -0.619574 -0.660974 
-0.0395921 -0.241863 -0.198384 -0.317241 -0.062365 -0.916594 -0.116347 -2.07655 -0.914291 
2.14961 -0.369583 -0.639352 -1.46311 -2.19468 -1.56473 -2.62034 1.82706 -0.768661 
-4.69273 -4.1256 -2.22575 -3.99996 -1.3093 -1.13073 -0.150995 -0.264524 0.323567 
0.273026 0.970013 0.993349 0.511596 0.0729142 0.376281 -1.56035 -1.81556 -0.768158 
-2.50321 -2.13074 -2.3524 -2.73902 -2.54792 -2.50445 0.723521 0.539622 0.725558 
1.69456 -0.0307986 -0.256155 -0.19558 -0.149665 -0.224692 -0.218148 -0.158942 -0.139364 
0.178019 1.07899 0.359267 0.0235354 0.980798 0.759309 0.103167 0.247177 -4.76934 
1.84019 -2.96266 -0.171217 -0.208504 0.563172 -0.236237 -0.248718 -0.821815 -0.391399 
-0.455868 -0.365707 0.512247 0.328864 0.219328 1.23881 -1.16422 -0.441787 0.685857 
-0.390766 0.642913 0.0822264 0.982154 -0.29916 0.333524 0.159516 0.00918108 0.177037 
0.448076 0.161572 0.636121 0.174955 -0.400277 -0.324035 -0.314297 0.541328 0.428958 
0.819929 0.158035 0.6473 0.721683 0.812022 0.565017 0.0836163 0.224764 0.17459 
0.118046 0.108727 7.51664 7.31504 5.57813 6.74183 6.41802 6.6529 -0.1082 
0.0681883 -0.0659407 -0.193027 -0.198992 -0.151568 -0.13197 0.071447 -1.01938 -0.45672 
0.426734 0.393142 -0.391806 2.01359 0.0935366 5.87841 8.26292 6.92125 8.75725 
6.83837 -1.42998 -2.82591 -0.759322 -1.9787 -1.06651 2.72689 1.27193 1.20266 
1.1875 1.46688 0.147021 1.43483 1.44431 1.67362 1.69138 4.92286 2.67321 
2.74787 1.00409 3.94807 2.41767 1.05034 1.04553 2.09497 0.556156 1.4249 
5.15708 0.730281 0.354454 -0.374137 0.419879 0.372135 -0.00661547 0.543039 0.167821 
0.152142 0.18078 0.155328 0.273299 0.157211 0.178125 -1.21615 2.36815 -0.305713 
-0.230296 -0.204782 0.406791 0.804232 0.39689 0.405456 0.347263 0.337363 0.272125 
0.228593 -0.277127 -0.0307182 -0.563254 -0.311684 -0.941358 -0.734254 -0.863579 -0.44829 
-1.43427 -2.37731 -1.81447 -0.518781 -1.39164 -0.858756 -1.03998 -2.31062 1.29614 
1.2661 1.35068 1.39242 0.861613 1.29353 1.05564 -1.65183 -1.22792 -0.404151 
0.160008 -1.1096 -0.390475 -0.102518 -3.56853 1.7985 0.240878 1.23805 1.58323 
2.27381 1.66712 1.74402 -0.0235827 0.0759668 0.869238 0.124207 6.06019 2.00939 
5.98009 2.66526 3.35918 3.85847 3.14681 2.42991 2.0646 1.50241 1.85946 
2.52198 2.58624 2.29645 2.07797 1.28022 -0.496407 -0.544629 -0.4348 -0.430144 
-0.926287 -0.925452 -0.889711 0.22514 0.222155 0.223678 0.157406 0.0601052 0.105498 
-0.0011716 0.072324 -1.13289 -1.18228 -1.37896 -1.22949 -0.8019 -1.14807 0.347523 
1.01158 0.128301 1.09894 0.0831911 1.43598 1.37271 1.10342 1.47329 1.40789 
1.53433 -5.7068 -0.933617 2.24764 -0.607656 0.369674 0.636948 0.429514 0.518796 
0.781109 0.102266 0.71311 0.533183 0.129003 -6.54882 -4.0905 -4.48175 -6.73251 
-5.71576 -6.46335 -6.25803 -5.77669 -6.15598 -5.95065 -6.2712 -6.64277 2.75529 
3.1683 0.596184 5.15164 1.81171 -8.0396 4.30986 -1.63172 4.38556 3.64068 
4.66693 4.10068 5.85497 5.98285 5.59297 -1.94644 -1.67343 -1.72742 -1.84481 
-1.08281 -0.967591 -0.40966 -2.03343 -1.79544 0.357239 -0.619157 0.34258 0.00871641 
1.436 1.8933 -5.622 -0.782168 -1.38879 -3.00741 -2.40042 -3.57747 -2.28335 
-1.73777 -5.28649 -4.09199 -5.55982 0.398146 0.115402 0.0163647 0.197752 0.0525055 
0.0795107 -4.7436 -5.03074 -3.80838 -5.3069 -1.67996 -0.742801 -0.909612 -2.60461 
-1.02355 -2.2181 -1.80161 2.66838 0.634444 3.6346 5.78471 5.75582 0.990291 
2.9335 2.3486 -2.13682 -1.73863 -0.674131 -1.87313 -0.935528 0.765892 0.180435 
1.07383 0.372323 0.963647 1.18308 0.81529 -0.771456 -0.781858 -0.857733 1.25016 
1.39413 1.176 1.4872 0.852772 0.804305 1.44608 1.02037 1.21432 1.27053 
1.13321 0.396726 -2.98208 -0.254952 -0.52594 0.242206 -0.208892 0.786875 -0.82463 
-3.63097 0.193373 -0.655548 -0.3352 -0.170519 -0.2685 -0.200897 -0.229169 0.543726 
0.00660411 2.93052 2.06177 2.22164 -2.76634 0.619355 -1.84099 0.524945 -1.70282 
3.02191 -0.240058 3.94936 -0.256122 -1.68438 -1.74807 -1.38181 -1.25567 0.469486 
0.530201 0.675936 1.15447 0.429244 2.38067 -5.66967 2.35333 1.7267 -0.0418913 
1.56533 -1.14955 -3.38762 -3.96793 0.612192 0.738713 -0.212203 0.406018 0.588611 
0.527434 1.91375 0.911089 0.182207 0.106885 -4.77887 -1.94866 -0.865966 -1.91616 
-1.8495 -1.18548 -5.19503 -0.800453 -1.21363 -0.872075 -0.989076 -0.898444 -0.698084 
-0.932575 -1.17143 0.802658 0.533592 0.621693 -0.624409 -0.439844 -0.649283 0.0359571 
-0.0277222 -0.212807 -0.620477 -0.0448971 0.982999 0.969637 0.788803 1.89381 0.39661 
0.0414036 -0.0757847 0.359311 -1.7083 -3.2046 -1.83469 -0.00378008 -2.50678 -0.945509 
3.97479 5.66181 -1.43868 4.9366 -6.62266 4.15425 4.5187 5.0685 2.18217 
2.97762 -5.01699 1.3219 -3.46655 -5.20379 -4.67375 -4.70319 -2.91449 -2.29469 
-2.42997 -2.37623 -2.67228 -3.41573 -2.30387 -0.160948 0.96579 -1.20602 1.86152 
0.390257 0.0829053 5.37661 4.44543 1.46156 1.38256 4.88586 2.23225 4.93349 
2.9325 0.00290369 -0.0765274 8.63094e-05 0.073765 -0.067504 0.032708 0.0358544 0.905967 
0.186257 0.0521974 -0.262414 0.101291 2.08055 -1.63213 0.0416516 -0.282696 0.333248 
-1.23785 -0.22418 -0.336325 -0.238537 -0.100113 -0.268529 -1.43148 -0.337824 0.741494 
-0.0759014 0.180629 0.0565067 0.123188 0.0280336 0.0977539 0.312327 0.477241 -5.18134 
-5.86533 -6.90975 -1.09213 4.37493 1.20204 -1.02149 -1.35537 -1.74793 -2.42093 
-2.06769 -1.79002 -1.06782 -0.657968 -0.883863 0.879627 -0.30857 -0.504543 0.140415 
-0.178301 -2.24051 -2.09791 2.19634 1.72826 -3.9337 1.7203 0.992946 1.77012 
-0.402974 -0.239629 -0.184022 -0.391068 -1.41028 -0.662434 -0.276857 -0.746075 -1.30999 
-0.370643 -0.338912 -0.153538 -0.473115 -0.727637 -0.374198 -0.160796 1.06782 1.60042 
0.815088 1.61469 0.911657 1.7868 0.0246307 0.043437 0.0827449 0.139301 0.281974 
0.21058 0.176115 0.0386049 0.0208209 0.00906226 0.570052 -1.78669 -3.53553 -3.808 
-3.68481 -2.39033 -4.63121 -3.57791 -5.04646 0.425619 0.224334 0.369786 0.445882 
-1.80644 -1.69309 -1.79472 -1.67639 -1.57476 -1.56016 -1.34032 -0.978667 -1.58516 
-0.554956 -0.616206 0.250422 0.177297 0.382827 0.690935 0.335165 0.488961 0.32364 
0.318684 0.960464 -0.324405 -0.344272 -0.394188 -0.345206 -0.35017 -0.400087 1.24431 
0.517406 1.33442 0.890337 0.934579 0.635503 0.869028 0.361712 0.649629 0.529768 
-0.0335596 0.201156 -0.0249328 0.134203 0.14645 -7.12558 -7.28958 2.72713 3.31856 
1.87013 3.14617 1.86869 -5.7832 -6.21359 1.51683 -0.405443 5.42233 4.98663 
5.60255 5.41827 0.37502 1.63862 0.380387 1.0806 2.26322 0.823524 0.50112 
0.0350773 0.47076 0.618399 -2.16987 -2.01546 -2.14474 -2.36586 -1.31432 -1.27139 
-1.54901 -1.29756 -1.12043 -1.08839 -0.960425 -0.992467 -0.452865 -0.488103 1.55368 
-0.290208 1.47534 0.0803132 -4.97438 -3.06847 -4.72567 -3.61054 0.467565 -0.584495 
-1.67635 -1.56459 -0.134286 -1.62246 -1.54329 2.14133 2.53446 2.07208 1.37176 
0.98663 3.4728 -0.14315 2.48254 2.2082 1.40711 1.28737 1.52727 -2.77594 
-0.756006 -2.11507 -4.1791 -0.885884 -1.05253 -0.809335 -2.8497 -2.63734 -0.996253 
-1.06001 -1.33516 0.52987 -0.277553 -0.338309 2.33218 2.09535 2.14622 1.59286 
1.64373 3.53347 3.38693 3.69585 -1.3993 -0.754708 3.35225 2.65493 -0.400976 
-0.372537 -0.850887 -0.47904 -0.39814 -0.216511 -0.394025 -0.426669 0.103987 0.175304 
0.157603 0.0986314 0.0938461 0.073005 0.13844 0.161136 0.162488 0.0482401 0.0686715 
0.0626654 -0.312814 -0.355972 -0.487832 -1.28645 -1.11915 -0.339407 -1.05359 -0.902064 
-0.236478 -0.546468 -0.260725 -0.407197 -0.38778 -0.70345 -0.250267 -0.363608 -1.21541 
-0.876993 1.43698 1.44685 1.56958 1.9584 1.78248 1.46024 -0.0896399 -0.0878762 
0.888896 1.00839 0.658009 0.588514 0.423293 0.913896 1.66457 -0.128767 -0.184761 
-0.899594 -0.25056 -0.833449 0.110724 -0.504105 -0.68847 -0.509774 -1.13012 -0.619326 
-0.503639 -0.522892 -0.882275 -0.290802 1.36042 1.10338 -0.800044 -1.28212 -0.193223 
-0.0706894 0.582646 0.466391 0.698953 0.367462 0.367182 -0.435858 0.686006 -0.148297 
-0.178877 -0.142184 -0.213751 -0.198623 -0.160171 -0.147756 -0.117402 -0.315828 0.854009 
0.945813 0.426021 0.78406 0.761025 0.938166 0.395148 0.75156 -0.495529 1.03835 
-0.473298 1.78034 0.260811 -0.465369 0.432418 -0.194916 0.89788 0.365439 -0.202465 
0.0556008 -1.0851 -1.04484 -1.54674 -1.84858 -1.61021 -1.95288 -2.19124 -3.22875 
0.457971 1.29433 0.351338 0.559306 0.563101 0.307911 1.29495 1.44149 0.053501 
-0.135331 0.487513 -0.188905 -0.142271 0.190734 0.11574 -0.248357 -0.227928 -0.180555 
-0.296401 -0.0164493 -0.288731 -0.269654 -0.312039 0.404477 0.347593 0.528177 0.487823 
0.346213 0.146935 0.356837 0.252208 0.51998 -0.252764 -0.30533 -0.246482 -0.227037 
-0.427817 -0.445847 -0.434646 0.116443 0.958659 -0.466111 -0.611598 -0.291354 0.0106906 
-0.067258 -0.508426 -0.390227 -0.548497 -0.321169 0.275254 0.1859 0.211324 0.241848 
0.268249 0.229736 0.21483 0.218837 -0.842504 -1.0129 -0.634192 -0.829495 -0.617198 
-0.764303 -0.494321 0.904594 0.827632 1.02752 1.18377 1.29473 1.10286 1.21382 
-2.73657 -3.18687 -3.84361 -2.53413 -0.00424526 -0.130121 -0.29541 0.151173 0.110461 
0.507848 -0.810134 1.27008 -2.59996 -1.50898 0.332534 -0.0738794 -0.0525259 0.123969 
-0.227925 2.69673 2.21494 1.65767 1.89528 2.07558 -0.77414 0.768057 0.144531 
-0.0546613 0.0630996 -0.217836 0.845091 0.1565 -0.256384 -0.261821 -0.341462 -0.389572 
1.62597 1.01654 2.79138 0.809047 0.268625 -0.210512 -0.213048 0.0420029 -0.178796 
-0.111518 0.246381 -0.115332 -0.19202 -0.20697 0.0156303 -0.0603588 0.263623 -0.438693 
-0.31181 -1.06593 -0.375317 -0.232311 -0.149597 1.02162 -0.590291 -0.631417 -0.172434 
-0.14793 1.48487 0.868741 1.22294 0.909829 1.05925 0.113124 0.390409 0.726804 
1.41671 0.224382 0.253802 0.275267 0.217065 0.210509 0.203704 0.265137 0.195543 
0.164478 0.588148 0.316945 0.362779 0.543826 0.446509 0.513284 -1.76889 0.86124 
0.35759 0.735481 0.648717 -0.247757 -0.231095 -0.23804 -0.236565 -0.229847 0.454568 
0.327699 0.310565 0.141278 -0.0631633 0.383046 0.527633 -3.54995 1.19451 0.996967 
1.07557 0.000370014 0.566738 1.39852 1.31622 3.95216 -2.1161 4.42995 2.47328 
2.62486 -6.95794 0.949661 -2.65014 -2.46066 -2.16626 -0.902814 -5.03392 4.48829 
4.67024 -0.762612 0.0302007 0.053216 0.0702218 -0.0465847 -0.543211 -1.47112 -0.673089 
0.156682 -3.14258 -1.92966 -1.90577 0.0412232 0.192019 -0.0937367 -0.0372167 -0.0529239 
3.8227 3.36841 4.06059 4.88293 5.30089 5.60197 5.17898 5.13482 -3.24348 
-4.90351 -4.60293 -3.37719 -1.47119 -2.84956 0.157559 0.226972 0.25011 0.643584 
0.487313 0.590017 0.321341 0.401202 1.44906 0.910692 0.522529 0.698826 0.261215 
-0.00885623 -0.00370936 -0.13791 0.109896 -0.110106 0.0497825 0.0124217 -0.00399465 0.0303789 
0.00147349 0.709622 0.56077 0.622681 0.792606 0.133618 0.927149 1.01451 3.83162 
1.71873 -0.918091 1.30071 0.828111 2.12323 0.332391 1.30501 1.21439 -1.20714 
0.282386 -0.681449 -6.66674 1.80176 -5.77115 -6.17493 -1.84376 -5.58465 -5.7651 
-5.63639 0.404529 -5.00001 -7.35203 -4.07115 -4.97199 -6.06427 -6.37311 -5.47709 
-5.68088 -4.27336 -3.56557 2.03559 -1.39074 0.792431 -0.711519 -0.528823 -2.82221 
-5.38322 -5.83366 1.97191 1.68031 1.38561 0.781064 0.883016 1.43453 0.399861 
0.875118 0.504346 0.80526 1.75944 2.0881 3.05957 2.68063 1.15159 1.1535 
-1.72812 -1.82138 -1.49592 -1.46956 -1.72751 -1.90088 -1.71021 -0.241642 -0.547901 
0.0245746 -0.0202728 0.00938543 -6.7371 -8.15767 -7.51823 -8.15362 -5.3021 -6.54105 
-7.53788 -2.98265 -1.91669 -2.66081 -2.53118 -2.30933 0.280099 0.182934 0.0982543 
0.482385 0.741619 0.546882 0.451493 0.286263 0.47241 0.136774 1.01879 9.39612 
9.23853 7.42192 8.78196 8.09419 7.18903 8.74007 8.76054 0.179025 -0.640008 
-0.63108 -0.77362 -0.840812 -0.173091 -0.221389 -0.226368 -0.207272 -0.128223 0.456161 
1.28284 -0.237352 0.928885 1.20232 0.801716 1.52259 1.12199 -2.0043 -1.6421 
-1.19259 -0.782776 -1.18031 -2.13605 -2.45256 -1.35913 -2.86288 -2.9062 -0.637486 
-0.868451 -1.94323 -0.801088 -0.622413 0.910303 0.923423 0.892601 0.550302 1.01328 
0.425979 0.339333 -1.02147 -0.836398 -0.990418 -1.12463 -0.186873 -1.31345 -1.17937 
-1.07675 1.56949 -1.10074 -0.46796 -1.15358 -0.0682214 3.28043 1.14102 2.21506 
0.424808 1.28845 3.0892 1.58995 2.18104 0.10968 0.177825 0.419105 0.33051 
0.406359 0.443669 -0.352293 -0.109181 -0.0514237 0.372628 -0.8717 1.7951 4.08809 
-1.27626 3.79195 -1.87789 0.80541 -0.763039 2.00666 -1.16822 1.49279 0.105883 
-0.600764 -0.419689 -0.201611 -0.120226 -3.26463 -2.44508 -0.257953 2.97881 -0.371589 
-0.650519 -0.536638 -0.579886 -0.753537 0.361268 0.359565 0.342678 0.06433 0.550549 
0.571768 0.481795 0.52477 0.215609 0.527207 0.722693 0.434477 0.566811 3.26446 
-3.34537 -3.47438 0.587667 -0.0988586 7.41676 -0.361864 -0.359975 -0.281337 -0.245452 
-0.176922 0.0186911 0.332024 4.22837 3.74187 4.6758 0.443044 0.889775 0.639747 
0.59718 0.776252 0.0617324 0.235003 -0.253105 -0.236738 -0.328497 -0.328425 -0.452992 
0.789735 -0.555743 1.87493 1.34488 0.750201 0.652379 0.652364 0.836343 1.46756 
-0.686643 0.289647 -0.274321 1.28203 0.375902 1.0838 0.883186 1.331 0.56365 
0.954874 -0.254105 -0.239001 -0.244158 -0.663045 0.484257 0.443299 0.386789 0.446162 
0.39968 -1.24757 0.0184297 0.108136 0.261172 0.12304 0.183456 0.176097 0.00904509 
9.02413 3.53619 7.64438 5.24239 7.63492 4.90806 3.13094 5.52796 3.02221 
3.60356 7.21515 7.6318 7.20937 6.68127 4.35397 4.43865 -0.298726 -0.421336 
-0.336663 -0.364774 -0.35936 -0.429375 -0.0532067 -0.0128897 -0.018267 -0.0432282 -0.132663 
0.0408204 -0.18158 -0.147467 0.828624 -0.58084 1.62447 0.492038 0.688924 0.563733 
-0.26076 -0.602934 -0.526805 -0.521578 -0.484711 -0.228441 -0.941317 1.1978 0.558927 
-0.314143 -0.411419 2.51298 1.13206 1.20572 1.98806 -0.187292 -0.49612 -0.589797 
-0.0463243 -0.304334 -0.445992 -0.0270209 -0.0258281 -0.0916892 -0.0368855 -0.0595742 0.00821597 
0.406936 -3.17203 2.71002 -0.203122 -0.0433172 -0.15167 5.61336 2.10779 4.49983 
6.95723 6.44104 6.66343 6.08926 3.44429 -0.19217 0.0213152 0.0641887 -0.0849544 
-0.0941083 -0.0918871 -0.200181 -1.37294 -1.65861 -1.84587 -0.605562 -2.05298 0.848523 
1.19508 1.95413 2.25443 0.404001 3.00008 3.63196 3.35638 -0.646749 -0.56584 
-0.536663 -0.43262 -0.403442 0.615767 0.0370159 1.39667 -1.8088 -5.46263 -5.29936 
-6.39556 -5.86659 -6.51141 0.906601 0.720054 0.423988 0.972022 0.275746 0.265537 
0.314489 -0.190589 -0.0921008 -0.262127 -0.393899 -0.217906 -1.40341 -1.35393 -1.11549 
-1.06601 -1.03276 -1.28187 -0.264527 -1.23436 1.46449 1.04944 0.0939664 0.515285 
0.701386 1.13555 1.51276 -1.51331 0.0560995 2.75994 2.37909 2.5638 2.37935 
-0.279014 2.94376 3.47958 2.23978 1.67384 3.20309 -7.54165 -0.299915 -0.175652 
-0.314155 -0.389177 -0.350647 -0.515239 -0.236358 -0.0807671 -0.87404 0.708465 0.162049 
4.83435 9.03879 -4.02705 -7.0004 0.488495 -5.61191 6.18779 -0.453939 -0.291029 
-0.379617 -0.413429 -0.200071 -0.210885 4.53978 2.46795 5.21107 -8.02117 5.63642 
4.67721 4.79182 1.39994 0.875482 0.944559 1.30877 1.36745 0.455446 -0.310137 
-0.349164 -0.179116 0.120877 -1.33622 -0.06873 -0.445345 0.174615 0.0898077 -0.0951849 
-0.296679 -0.883743 -0.272508 -0.553074 -0.586043 -1.54416 -5.2553 -2.01272 -2.88873 
-0.149128 -0.482209 -0.782898 -0.0356711 0.270841 0.346723 0.303518 -0.514317 0.340331 
0.477021 -2.36973 -0.958882 -0.529823 -0.220471 -0.864181 -0.54126 -0.814024 -1.00305 
-0.440104 -1.00126 -0.296808 -1.61958 -0.518859 -0.603969 -0.667431 -0.451537 -1.36087 
-1.46362 -1.13051 -1.93454 -1.13926 -2.00913 -2.09307 1.31018 -1.4247 0.207741 
3.01395 -0.241945 0.13205 -0.133477 0.116377 0.218112 0.215225 0.826851 0.638523 
0.448794 0.0457532 0.511698 0.611546 1.20966 0.221791 0.769105 1.22606 0.888368 
-1.24153 0.426446 0.510382 1.03981 -0.15922 1.12385 4.77585 4.13344 5.1421 
4.66027 4.50239 4.60795 5.4575 -0.390013 -0.376622 -0.387654 -0.400846 -0.392849 
-0.312135 -0.394192 0.230438 2.17694 1.5744 2.09709 1.97273 2.93273 2.50846 
3.17117 -0.709965 -1.03492 -1.50362 -1.27416 -0.774291 -0.216098 -0.6171 -1.06612 
-1.74943 6.53171 6.06582 5.05324 5.60574 5.53099 4.84117 6.98251 -3.50749 
-0.110507 -0.58133 -6.11384 -4.20469 1.94344 -4.23695 -3.22337 -4.2286 -4.3846 
-1.3018 1.41649 -0.338899 0.501007 0.0754232 0.234929 -0.153257 0.3161 0.801807 
0.00408561 0.095339 0.128453 -0.144548 0.136401 -1.17105 -0.898773 -1.59335 -0.563296 
-0.537462 -1.01633 -0.408862 -1.01016 -0.397732 -1.08497 1.91201 2.49991 1.23729 
2.6331 2.82025 2.26361 1.98254 -4.32477 -5.06259 -4.00303 -3.3983 -3.27673 
-1.72937 -4.54691 -5.19901 -2.31588 -0.458724 -0.534647 -0.238839 -0.191522 -0.285781 
-0.29361 -0.264329 1.24266 2.44278 1.89088 0.488758 0.259342 0.212188 0.350424 
-0.285629 -0.145363 -0.205556 -0.646278 -0.523473 -0.374601 -0.34519 -0.341422 -0.321414 
-0.635665 -0.483653 -0.822586 1.73714 1.68404 1.61211 1.45728 1.43906 1.32238 
-0.220972 -0.430749 -0.362168 1.23386 0.215006 0.915966 0.860869 0.934204 0.168058 
0.476838 -9.41708 -9.13569 -8.75868 -7.78881 -8.41486 -2.00056 -1.36608 -1.24589 
1.49255 -4.73301 0.190994 1.48598 0.203307 0.21941 0.136793 0.155931 -0.0576622 
-0.118147 -0.193133 -0.203319 -0.22693 0.0417179 -0.22706 -0.0295227 -1.57196 -0.977645 
-1.22703 -0.995852 -1.16507 -1.10145 -0.598415 1.39972 0.576874 0.197121 0.16516 
0.783136 0.227812 0.216027 0.618543 0.307353 1.01783 0.302545 -2.03536 -4.39553 
-0.721187 -0.511724 -0.521743 -0.496343 -0.492746 -0.518146 4.40833 0.886804 2.39815 
0.966846 2.52815 0.526352 -1.1463 -0.509074 -0.795406 -0.0582066 -1.26542 0.200214 
0.22634 0.233591 0.238166 -0.283473 -0.266668 -0.225811 -0.26241 -0.499345 -0.249966 
-0.835666 -1.36961 -0.957935 0.862276 -1.70059 -1.05511 -0.733068 0.0899652 0.1294 
0.134273 0.0681998 0.0446701 -3.33225 -8.62447 -0.0202341 -0.0810327 -0.156542 -0.0507702 
-2.73563 -0.103929 2.3573 1.62312 2.36269 2.37792 -3.09699 -3.36756 -3.3526 
-3.76305 -0.805083 -2.44284 -2.78398 -2.10853 -3.10938 -1.25614 -0.257781 -0.396502 
-0.826756 -0.447787 -0.583192 -0.586158 -0.770838 -0.847344 -0.137748 -1.18027 -0.222405 
-0.742303 -0.343012 -1.15759 -0.548511 0.296079 0.496416 0.391369 0.552445 0.472174 
0.549997 -0.805562 -0.838682 -0.928243 -1.14941 -1.18965 -0.161143 -0.225423 -0.305083 
-0.354978 -0.510455 -1.25037 -0.544965 -0.468686 -0.594005 -0.62045 -0.109334 -0.214648 
-0.148416 -0.18146 -0.165045 0.0657974 -0.231811 -0.220341 0.28679 0.250036 -0.271632 
-0.355669 -0.503378 -0.303435 -0.229958 -0.254031 -0.432291 -0.295614 -0.190867 -0.40348 
-1.1294 -0.992146 -1.49882 -1.22162 -0.518586 -0.513252 -4.71421 -4.76928 -2.35479 
-2.86172 -1.1865 -1.24998 -1.33934 -1.10154 -1.31596 -7.16594 3.64992 0.435948 
1.54845 0.978139 1.22408 -1.19304 -1.16643 -1.07237 0.280867 -1.50744 -1.16886 
-2.26826 -0.701615 -0.0647237 -0.420732 -0.530062 -1.69424 -5.5141 -4.7909 -6.01189 
-1.10881 1.75459 3.7405 0.126192 0.293715 0.229267 0.234418 0.244983 0.126974 
0.0666362 0.167468 -1.54222 -1.47018 0.0429661 -0.0275353 0.176386 -0.75676 -0.0594616 
-0.132723 -0.0411066 1.57415 2.31867 3.13774 3.03898 2.94514 3.40282 1.28819 
1.72565 1.92801 1.94384 1.49459 2.01939 2.08032 0.234265 0.217655 0.223791 
0.0903806 0.158309 0.740907 -0.85237 2.85147 -1.02925 1.11278 1.04488 1.00178 
0.190385 -0.211568 0.0311513 -0.0159608 -0.405021 3.7885 -0.0299687 -3.53892 -3.77223 
-1.85359 -4.14876 -0.681455 -3.35369 -1.83481 -2.09898 -1.57123 -0.89137 -0.866885 
-1.11889 -0.704282 -0.551362 0.054924 0.141555 -0.0268624 -0.247409 -0.242048 -0.194349 
-0.122327 0.763547 1.00997 9.53959 0.960577 0.709636 0.557819 0.569998 1.56978 
0.803606 0.723865 0.789235 -0.436269 -0.15947 -0.0744462 -0.359514 -0.435392 -0.0904012 
-0.332416 -0.313366 -0.326718 1.74334 1.6619 1.26923 1.79457 1.65736 -0.600802 
2.15234 -0.391949 -0.417666 -0.58227 -0.0406893 5.8368 -0.651236 -0.358566 5.75131 
-4.55537 0.686463 -3.21165 -3.64027 -2.36931 -4.79765 1.25743 1.26934 1.17418 
1.39625 1.5312 0.552334 0.545754 0.463425 1.69875 4.5539 0.215967 0.197768 
0.149744 0.102259 -0.175935 0.258528 0.41252 0.497128 0.592489 0.293852 0.189045 
0.258104 0.270248 0.197505 0.190321 0.186769 0.228458 1.56749 1.47278 1.47763 
1.46698 -0.562853 1.48518 -0.393621 1.46846 0.905632 1.36647 1.17944 1.09123 
1.25549 1.16728 0.380494 0.242581 0.288678 0.560803 0.244811 0.209075 -0.868497 
-1.06995 -1.35189 -0.557607 -1.72322 -1.2264 -1.00282 -0.572794 -0.36507 -0.507905 
-0.323968 -0.43756 -0.0311593 0.0471875 -0.233438 -0.106057 -0.308535 -0.212923 -0.463502 
-0.335805 -0.35959 2.60656 -0.202615 -0.633645 -0.368929 -1.45411 -1.53327 -0.317098 
-5.50054 -8.09096 -8.46465 -9.15749 0.333436 -1.80245 6.01128 -6.45872 -1.305 
-0.405611 -3.67931 -5.44219 -5.32269 -5.50358 -5.96019 -6.37075 -0.027392 -0.0318909 
-0.0686004 -0.0663898 -0.104177 -0.0893785 -0.0528338 -0.0928335 0.254947 0.416225 0.676524 
0.524205 0.5662 0.510214 0.306576 0.274496 -0.200555 -0.20221 -0.0842503 3.48816 
-0.188669 4.32579 -0.558865 -0.145602 -0.200276 -0.362954 -0.444148 -0.322607 0.475147 
0.785701 1.3982 0.522805 0.987006 0.366142 -0.153944 -1.20755 0.067919 -3.15679 
-1.0697 -3.00856 -2.87367 -1.14558 -1.1128 -0.431062 -0.418847 -0.485929 -0.264308 
-1.07072 -0.0110833 0.0746301 2.40246 -0.219804 -2.10553 -1.05174 2.95956 3.96404 
4.21536 -0.46556 -0.366447 -0.368036 -0.394731 -0.414396 -0.276416 -0.415367 -0.276335 
1.76439 -0.237897 4.94563 0.949414 4.2074 3.07512 5.59124 0.964308 3.90237 
0.591153 0.500029 1.15149 0.104104 0.953393 0.3468 0.197816 0.900819 0.994178 
1.09782 1.75973 6.32401 5.71023 0.0395641 0.194921 -1.8087 0.0545233 -1.73665 
0.903034 0.00583355 0.68036 -0.104491 0.553414 -0.49625 3.5414 3.54486 3.14335 
2.89773 3.02309 3.33378 3.17151 3.06429 1.36992 -0.995046 0.0275237 0.938487 
-0.153422 6.92662 -6.22778 -5.2807 -3.04974 3.93376 4.01444 3.69884 3.52158 
-3.70506 1.77265 -1.38371 -1.12783 -1.82909 -1.77194 -0.803739 -0.406114 -2.47453 
-1.36478 -0.349624 -1.28905 -0.765147 -2.8842 -3.64968 -3.37987 -3.4242 -2.80584 
-2.79697 3.43958 4.32788 4.52268 4.7622 4.14755 4.42445 4.18493 4.62345 
3.03667 0.46826 0.472952 0.44711 0.0754128 0.322889 0.481379 0.490506 -0.779579 
1.18373 -1.54378 -1.08431 -1.33661 -1.49041 -1.67887 -1.65157 -1.88001 -1.008 
-0.709891 -2.00769 -0.686632 0.834617 0.70721 -0.408723 -0.272179 -0.196384 -0.332927 
-0.0888351 -1.25363 2.99936 -1.40347 -1.72758 -0.507042 -0.333113 -0.159946 -0.368851 
-0.180216 -0.207361 0.258944 2.74677 -0.321789 3.8465 0.525682 -0.0813191 -1.41889 
2.5703 5.61045 5.27219 4.97405 5.98433 5.12886 1.04877 3.2804 2.8999 
1.15532 0.851483 2.61782 1.87469 3.47186 1.55651 2.56956 2.71988 2.29929 
1.87806 -3.18693 -2.45597 -3.72657 -0.467766 -1.82282 -0.195116 -2.10171 -4.44245 
-2.84809 -2.27847 0.342103 0.176092 0.167002 0.194975 0.204065 0.195766 0.500063 
0.416331 0.544566 0.318851 0.227396 0.893287 0.951471 1.00028 0.51023 1.09317 
0.0597676 0.257037 0.128368 0.118049 0.136398 0.97204 1.03013 2.81338 0.247516 
2.05971 0.752348 -0.911824 -0.0701995 0.250194 0.216434 0.32866 0.302183 -0.235002 
0.414118 -1.28332 -0.615666 -0.339665 -0.0996688 -0.75461 0.934351 0.852477 2.62364 
0.194785 0.253759 0.235937 0.191692 0.0378922 0.146226 -0.000273596 0.0187398 -1.94275 
-2.36821 -4.0797 -2.08241 -4.36551 2.73121 3.09487 2.10701 0.728601 2.09165 
1.34915 -0.796844 -0.872273 -0.478251 -0.193597 0.612849 -1.49991 -1.3056 -0.489518 
-1.19926 -1.2889 -1.27943 -0.541947 -0.315855 -0.844625 -0.85665 0.152566 -0.125573 
0.01489 0.0139176 0.15229 0.340698 0.408826 2.07641 2.43096 2.33951 1.50517 
2.62877 0.281266 0.253555 0.447174 0.488132 -0.877013 3.9017 -1.55491 1.21292 
0.381437 1.88596 0.901507 -2.15883 -1.6923 -1.15023 -1.15579 -0.928897 -1.47132 
-2.37469 -1.50931 4.11498 -0.21307 -0.0403621 -0.503436 -0.0416865 -3.29358 -0.710143 
0.0809964 -3.30132 1.31135 -0.235571 -0.223327 -0.237173 -0.278103 -0.670001 -0.232822 
0.87371 1.37571 1.16909 2.5269 2.17916 2.15962 -2.06812 -1.73263 -0.367555 
-2.45793 -2.02907 -0.0612849 0.273215 -0.161863 -0.604604 -0.00353369 -0.113595 -0.149215 
0.464008 -0.0605146 0.33357 0.132383 0.408361 0.178324 0.333807 0.342384 0.42803 
0.467638 0.465414 -0.115486 -0.377276 0.161807 -2.06514 0.542162 -0.538929 0.516554 
0.393201 0.243835 0.199322 -0.253432 -0.188852 -0.164265 -0.225307 -0.327496 -0.345821 
0.0160065 0.852125 0.799241 1.37015 1.5958 1.13799 0.844354 -0.0472059 -0.0494165 
0.0038017 -0.061198 -0.0691837 -3.02342 0.256671 0.110774 -0.0488219 0.0283124 -0.099148 
-0.158002 -0.19492 -0.252574 -0.236523 -0.169342 -1.20253 0.0271473 -0.153945 0.754386 
-0.294472 0.500672 0.771053 0.356239 0.24231 3.26946 0.444737 0.511728 0.215237 
0.313808 1.27321 -0.408291 -1.29703 -0.488829 -1.29206 -0.323722 -0.184083 -0.161558 
0.398666 0.299902 0.264453 0.317619 0.244872 -4.63009 2.87529 0.912856 0.882655 
0.968339 -7.36223 0.544719 0.545232 2.70451 2.89208 1.5935 4.83008 4.94469 
0.585558 0.481191 -2.20602 -2.4361 -1.57872 -1.67645 -1.52684 -1.88416 -1.99094 
-0.446809 -0.49375 -0.339967 -0.426294 -0.536783 -0.480942 -0.428775 -1.42452 4.82024 
-0.0557895 -0.0491155 -0.0751101 0.0687982 -0.228952 -0.219775 0.670678 -0.406199 -0.237255 
0.588339 0.242653 -1.36022 -0.10843 0.687163 -0.48594 -0.922177 -0.739792 -0.978698 
-0.696597 2.71517 2.36946 1.99903 -0.563617 1.34987 0.199038 1.17482 -0.0295107 
1.42281 2.1687 0.394875 0.246267 0.214315 0.40896 -7.42122 -7.31982 -7.18791 
-6.58906 -7.34146 -8.33389 -7.95661 -1.96055 -1.58363 -2.19405 -0.998243 -0.889966 
-1.31396 -1.84008 -2.81804 -5.41698 -1.78021 -4.68342 -5.43794 -5.21988 1.82871 
0.499861 0.560445 0.379431 0.568067 -1.24083 -0.805506 -0.834175 -1.26813 -0.788848 
-0.157579 8.45447 0.276831 9.10353 -4.47622 0.322936 1.81291 0.588636 1.24776 
0.612727 0.405999 -0.246728 -0.0823935 0.0250845 -0.543185 0.189896 0.194212 0.429254 
0.436907 0.575527 0.694038 0.726008 1.14162 0.647314 0.891304 0.755083 1.1967 
0.586243 1.17595 1.11604 -0.201891 -0.171033 -0.214121 1.02747 0.836815 0.61848 
0.774885 0.865495 0.979845 1.22792 1.5658 1.38381 0.058615 -2.23817 -3.08203 
-2.41428 -2.797 -2.38851 -2.54392 -2.42365 0.310462 0.246875 0.317741 0.262226 
0.693073 0.495735 -0.573442 -0.451587 -0.755557 -0.421523 -0.0745939 -0.295289 -0.139454 
0.0313464 -0.00344827 0.751805 0.722244 0.808217 0.837777 0.663391 -3.79231 0.115489 
0.589228 0.468863 0.467668 0.232097 0.853366 0.746162 0.25963 0.286226 0.596756 
0.441848 0.207158 0.634415 0.199328 0.322807 1.37099 -1.24467 -2.13286 -1.19274 
-3.07239 -2.17718 -1.90166 -1.97513 -1.73963 0.430427 0.45467 0.393789 0.366693 
0.283864 0.898313 0.710396 0.567387 6.7713 5.89033 5.4261 3.67946 7.52122 
7.87265 5.58459 -1.90507 -4.5885 -5.61549 -3.43506 -1.22279 -0.603214 -0.940606 
-0.527309 -1.02946 0.30105 0.228719 0.192975 1.83111 1.06449 0.519816 0.319093 
0.326449 0.222057 0.0742612 2.79376 5.1223 -0.159762 0.113801 0.145786 0.47547 
0.390545 0.480238 0.211547 0.136486 0.280575 0.900981 0.233451 0.363629 0.238268 
4.32835 4.55455 4.74482 4.76794 -1.90887 -2.25791 -2.37258 -2.02037 0.555633 
-2.64853 3.07173 3.43866 4.0569 3.94286 0.248128 0.389748 0.338098 0.390518 
0.299578 -0.312316 -0.138096 -0.362834 0.0950557 -0.704504 -7.20683 -0.0379769 0.00307533 
-0.0262359 -0.0571736 -0.0689147 6.05112 0.23777 0.222509 0.840741 -0.262494 -0.113284 
-0.19119 -0.353557 -0.340076 0.350448 5.23059 3.22919 -3.98081 -3.56282 -4.16875 
-0.248686 0.233478 0.133538 -0.23972 -0.33966 2.9528 3.0762 2.03437 1.06929 
0.974964 2.60988 0.429112 2.99871 1.41914 1.70894 1.42185 2.32954 3.05586 
1.84246 1.88428 0.108924 1.93287 0.355868 0.16864 0.00889323 0.0556209 1.58483 
3.08044 0.46899 0.211198 0.188984 1.89538 -3.51536 -2.25033 -3.61705 -3.58906 
-3.66718 3.81631 0.249017 -0.0529599 1.14312 -0.374152 0.882373 1.1935 2.36716 
2.19518 2.24151 1.8444 2.16305 2.08653 2.84366 -2.43971 -2.26624 -2.0492 
-2.22267 -0.223644 -2.04475 5.33757 0.0947928 -0.50481 0.201518 0.16167 0.555013 
0.294489 0.986312 0.583799 0.729552 0.791073 0.201477 -0.832616 1.40495 7.26993 
6.79384 8.30432 -0.31657 -0.165501 -0.187952 -0.16943 -0.206458 1.28984 1.4745 
1.46277 0.697828 1.50662 -0.716371 -0.732137 3.1757 3.62591 -2.26876 -1.70012 
-0.264673 -0.341634 -3.84957 -1.13861 -2.89301 -0.925942 0.191958 4.52769 -1.95015 
-0.995863 -3.05767 4.95446 -0.851257 -0.225516 -0.31777 -0.533716 -1.16577 -0.796568 
0.325103 -0.439256 0.307576 0.346154 0.361965 0.379565 -1.17987 -1.05357 -0.870055 
-0.866491 -0.875353 -0.864124 -1.06761 0.622187 -1.95259 -2.41488 -2.37847 -3.15681 
-3.01018 0.637777 0.565574 1.27004 1.33487 4.7011 0.0416244 -3.96212 3.37432 
3.9081 3.91031 5.97251 5.05747 6.17514 7.09018 -0.221576 0.727675 -1.69466 
-1.90355 0.0445931 1.19754 0.127816 -0.385463 2.09534 1.65199 1.333 0.99978 
1.08535 0.134426 0.0607121 -0.8478 -0.303536 0.43518 3.51485 0.825167 0.493012 
0.890239 0.499241 -0.0816801 -0.96977 0.346716 -0.743032 0.485242 -2.42352 -1.12654 
-6.93481 -7.24668 -6.53161 -7.96193 -0.413365 -1.04642 -0.593065 -0.322131 0.235193 
-0.296169 -3.53954 -1.11243 -0.717889 -0.649821 -1.29976 -2.45523 -3.61406 -0.409581 
-0.394817 -0.383984 -0.383063 -0.300125 -0.354951 -0.381255 0.0346525 -0.185571 -0.442449 
0.0767023 -0.638386 -0.850468 0.517372 -0.0180767 0.21641 -0.302216 -0.861502 -0.922904 
-0.8877 -1.01009 -1.31437 -1.0387 -1.03729 0.211008 0.368039 0.283606 0.476638 
-2.97894 0.403205 0.393473 -0.424036 -0.616377 -1.50852 -0.306649 0.742613 0.218367 
-1.46028 -1.45442 -3.2527 -2.72391 -6.80822 -6.66602 -6.76596 -6.90816 0.312837 
0.313059 0.299739 1.31789 -0.425888 1.76545 -6.18083 1.09785 -4.16674 7.706 
6.38545 8.12889 7.32872 5.32513 6.82963 -0.602405 -0.297037 -0.430976 -0.260229 
0.0243211 -1.39519 -1.58275 -2.17249 -1.80976 -0.318862 -0.433024 0.88238 -1.52643 
-1.14158 -0.0958349 0.719352 0.336329 -1.03797 1.57914 -2.57 -0.357904 -0.410496 
3.1041 -0.584419 -0.594033 -0.227691 -0.429413 -1.51661 -1.54793 -0.248103 -1.23993 
-4.6548 -5.47754 -0.677348 -5.18603 -1.11017 -0.563137 1.83647 2.45595 0.777567 
1.62719 -3.62685 -4.71947 -5.20268 -4.78892 -3.92952 -0.122894 -1.56991 0.0993725 
0.183444 0.0361097 -1.66131 1.90975 0.113259 2.53232 0.522487 1.46586 0.885326 
1.55094 1.28148 -0.261743 -0.162965 -0.229005 -0.263039 -0.149394 -0.202011 -0.32334 
-0.183966 -0.509489 -0.00586095 -0.324763 -1.20662 -0.82839 -1.13964 -0.243642 0.878016 
6.37801 7.58124 7.03423 -0.50255 -0.69597 -1.03676 -0.746394 -0.679223 -0.801068 
-5.83082 -3.4384 -3.01076 -3.02063 -3.5929 1.503 -0.107272 -0.45821 -0.355507 
-0.384612 0.357205 0.372751 -2.13288 0.440696 0.395719 -3.45863 -3.38538 -3.32785 
-3.34108 -4.32079 -0.00118697 1.13177 1.3646 -1.39551 -0.880615 0.728531 -0.627871 
-0.0215468 -0.088258 0.0285436 -0.0835641 -0.592946 -0.189517 0.0899945 -0.0972025 0.281856 
-0.108611 1.59704 1.23633 -0.387553 4.30641 4.48965 0.932497 3.95072 -2.91568 
-2.61591 -4.38358 -3.47501 0.214301 -0.642871 -0.782177 1.76542 -0.266964 -0.303172 
0.0298733 -0.0843562 -0.119711 -0.132681 -6.39966 -2.77429 3.47847 -5.5386 -5.09216 
-5.95124 3.26897 6.09408 3.78709 1.65296 1.71366 1.90357 4.12591 -0.248508 
2.54458 1.49243 -0.168171 6.26544 5.20133 4.54868 -0.165596 -0.16096 -0.179758 
0.521722 -0.700939 -0.107198 -0.268897 0.0350998 -1.32165 -1.28672 2.27329 -1.07757 
-1.32071 -0.97374 -1.10895 -1.03498 1.33317 1.2741 1.22159 0.458051 1.56142 
0.469411 1.45917 1.36605 0.488079 0.509829 0.106138 0.614143 1.34026 0.535781 
-3.78134 -2.04575 -1.87269 -1.36414 -0.886269 -1.9659 -1.08482 -1.73864 0.632347 
-0.113755 0.0434268 -0.159959 0.122405 1.70624 -0.65961 0.738127 0.648623 -3.62784 
5.09243 5.09225 -2.83244 -2.22061 1.77889 1.45253 1.95966 1.6333 2.35847 
-3.70163 -7.20222 -4.65946 -3.9614 -3.29225 -3.95276 -2.51049 -3.22506 -2.47565 
-3.17391 -3.501 3.69523 1.77641 1.26588 2.34495 2.1233 2.63815 3.42386 
0.297569 0.138724 0.105869 0.0813797 -2.04532 0.16148 0.141184 2.58523 2.37254 
2.45079 2.2381 2.42005 2.47878 1.30726 -0.661024 -0.607601 0.260126 -0.144438 
0.487253 4.95821 0.135983 0.0654816 0.389265 0.294483 0.244345 0.581002 0.180912 
0.575339 0.247151 0.221764 0.189768 0.164381 -0.0492892 0.188207 0.220276 0.228057 
0.16176 7.64868 1.57584 0.449173 -1.81645 -2.44505 -3.88202 -3.93101 -3.51865 
-3.46966 0.666718 -0.0667653 -0.193501 -0.216799 -0.121478 -0.174634 -0.259209 -0.25752 
-0.299395 0.134378 -0.430725 -0.412231 -0.388137 -0.328103 1.1684 -0.897953 -0.923755 
0.663359 0.236512 0.126973 0.224225 1.68449 -0.498103 2.00876 -0.201285 -2.3469 
-1.11439 -0.717816 -0.769485 -0.259994 -0.475564 -0.764023 -0.338609 -0.06047 -0.395987 
-0.439281 -0.788844 -1.08929 0.114584 -0.335696 -0.608669 -0.644823 -0.67373 -0.736459 
-3.60533 0.295668 -2.55323 -2.6748 -2.17002 -2.55967 -2.3432 -3.0917 1.15855 
1.06457 -1.21779 -0.794991 -0.0571193 0.0150053 0.51912 -1.82998 1.32911 0.258158 
0.405452 0.202278 0.206507 0.246615 -0.529974 -0.362529 -0.746989 -0.249537 -0.516151 
-0.1623 -0.340639 1.13804 0.993984 1.33878 1.81235 1.34664 -0.655889 -0.562328 
-0.493673 -0.494458 -0.312271 -6.26166 -0.526806 1.61034 -1.83978 -4.21002 -4.20014 
0.435751 4.79793 5.41884 5.51968 5.64351 5.41191 6.13772 5.13363 4.72045 
3.22203 1.78521 1.80705 2.41823 -3.25734 0.784878 0.45296 -5.56171 -5.21162 
-4.74058 -4.57344 0.10128 0.0659015 -0.129402 -0.00520823 0.146916 3.74608 4.82816 
4.42168 5.21252 0.786795 0.630984 0.582919 -6.65358 0.416022 0.438829 1.95195 
0.559821 0.897984 0.257059 6.1461 1.87102 1.96161 2.04983 1.81681 1.66557 
-0.67125 1.00595 -0.502503 -0.192791 -0.425262 -0.693227 -0.211986 -0.396017 -1.62009 
-0.424951 -1.00611 -0.478555 -0.66867 0.163993 0.43 -0.00348608 -0.142912 0.333509 
-0.0533987 -0.130527 -0.142639 -0.0967134 -0.108825 0.164283 -9.01457 0.339009 0.381323 
0.365247 0.172284 0.14137 -0.0795716 0.082448 0.0515342 -0.456446 0.20064 -0.218233 
-0.495218 0.418959 -2.77316 -0.242275 -0.747437 -0.949309 0.483933 2.70731 -1.7045 
1.01599 0.410345 2.7869 0.92219 0.0601141 -1.18284 -1.15392 -1.21384 -1.29655 
-1.53891 1.63954 1.23224 2.02479 0.713655 0.999017 0.718334 0.841517 1.11346 
-0.27353 1.88775 1.13427 2.02651 1.11284 -0.28587 -8.07177 -0.677589 -0.0174517 
0.171638 0.202943 0.086425 0.250705 0.263032 0.148271 -0.156421 -0.343998 -0.389638 
-1.17914 -0.366304 1.28522 -2.49833 -3.26308 -7.22646 -7.65772 -7.41455 -7.98678 
-8.16441 -7.81215 -7.82226 0.00557819 -0.0601453 -0.0100549 -0.113508 -0.128869 -0.410846 
-0.530516 -0.554547 -0.440179 -1.46239 -0.782818 -1.00403 -0.423464 -0.809634 -2.42793 
-2.38493 -1.91556 -7.78414 -1.85191 -3.23112 -1.76252 1.95144 0.465999 1.32506 
1.01001 2.21753 -0.176069 2.07809 0.609256 1.98909 -0.150437 -0.759858 -0.269735 
-0.232511 -0.851736 -0.446796 0.897727 0.76876 1.05919 1.58537 0.671417 -2.63055 
-2.97902 -2.38729 -2.71567 -2.7422 -1.80214 -2.97314 -3.17234 -3.13448 -2.39013 
-0.715799 -1.03317 -0.990036 -1.16823 -0.928071 -0.482248 -1.22097 -1.06664 1.36412 
1.69278 0.900954 2.27198 1.34663 2.63326 1.67711 0.204808 -2.74823 -1.99169 
-0.936099 -3.03183 0.211007 -2.01987 -3.99138 -3.9474 -2.15299 -2.03101 -0.0514614 
-1.86927 -1.7506 -1.95143 3.85132 2.66151 5.29015 2.08992 4.11635 0.34257 
1.8493 3.6869 2.23918 4.57592 2.54695 -1.92337 -0.835201 -0.497251 -0.863405 
-0.303603 -0.136893 -0.224934 -0.0500551 0.130774 0.195489 0.218677 0.25652 -0.718566 
-1.78499 -2.82031 -1.37856 -1.86426 -2.12854 -1.34867 -0.384119 0.629855 -1.68286 
-2.05514 -1.16883 1.3253 -3.0612 -2.6932 4.95384 -1.98825 0.250712 -0.309596 
0.274682 -2.05692 -2.11335 -2.17601 0.236093 0.162623 1.28735 0.651256 -1.43767 
0.331666 0.610671 0.712142 1.34143 -0.651248 0.303874 0.326539 0.322431 0.0576559 
-0.128275 -0.280385 0.479533 0.662452 0.502737 0.453205 0.812497 0.643217 0.492183 
0.821636 0.398482 0.27075 0.704289 0.363318 -0.897356 -0.689706 -0.713011 -0.652877 
1.2463 -0.528417 2.63269 -0.202151 -0.226365 -0.217005 -0.352599 -0.246504 -0.419796 
-0.6279 -0.608902 -0.596864 -0.557016 -0.578457 -0.645375 -3.74 -0.18401 -4.60304 
-1.39973 1.03826 -0.259096 -0.511306 4.94782 0.433218 -2.09137 -0.487909 -0.828522 
0.337543 0.549019 0.106621 -1.11687 0.203178 -1.04118 -0.888248 -5.30167 -0.197558 
0.0366188 -0.144633 0.241181 0.463481 0.521424 0.63667 -0.483836 1.36838 0.849256 
0.289747 -0.981249 -2.9949 2.34302 0.156615 -0.81043 -0.184861 0.272282 -0.632015 
-3.19884 -3.61409 -0.176216 -0.201794 -0.150959 -0.170294 -0.195551 -0.726386 -0.931441 
-1.06722 -0.731689 -0.600505 -0.7131 -0.254468 -0.675942 -0.388138 -0.795492 -0.913085 
-1.05494 0.766659 0.526102 0.568438 0.675329 0.825804 -3.61268 -2.97871 -3.04416 
-1.69415 -3.1941 -4.07362 1.98697 0.347005 1.34132 1.18471 0.442395 0.0206263 
0.142913 -0.899594 -0.592142 -0.60827 0.34956 0.979539 0.41458 0.432455 0.36858 
0.272358 -0.311661 -0.223927 -0.173098 -0.181854 -0.213842 -1.02212 -0.603368 -0.368633 
-0.0408274 -0.353067 -0.335706 -4.27192 -0.242805 0.553216 -0.63141 -1.81432 -1.82193 
-0.495942 0.2176 0.241507 0.862149 -4.12762 -3.29311 -3.17409 -0.216801 -0.00628344 
-0.186287 0.00209923 -0.184218 -0.1786 -1.25576 0.44933 0.681548 -0.687609 -1.02144 
0.539154 -0.896491 0.752909 0.51433 0.31376 1.357 1.86523 0.921781 -0.938714 
-0.643441 -0.65476 -0.59611 -3.35351 -2.85656 0.430275 -0.199228 2.25296 0.326178 
0.844012 0.403041 0.334774 0.33357 0.34329 0.252207 0.281311 0.190228 0.371298 
0.287863 0.324926 0.514833 -0.104394 -0.0943818 -0.234215 -0.288404 0.435345 0.429917 
0.488223 0.482795 -0.0909393 -0.157267 -0.320689 -0.0756904 -0.0835952 0.0180291 -0.178585 
-0.241337 0.131485 -2.71084 -2.71957 -1.65061 -3.06033 -2.60838 -2.06188 -1.84911 
-4.90589 -2.78211 -0.199611 -5.02147 -2.92453 2.04945 2.69084 3.67796 1.84649 
-0.114833 -0.706254 -0.815096 -0.870003 -0.694797 -0.637987 1.47177 2.87111 2.0303 
1.5301 1.3402 -1.82029 1.77404 0.898147 0.927697 -0.0180163 0.0161007 0.0181234 
-0.0267727 -0.0722309 -0.0374735 -0.136397 3.67018 1.78048 0.602319 1.29209 1.43 
1.37435 1.39725 0.8766 2.50482 2.70154 0.0773532 1.70833 1.80774 1.18379 
-0.814726 1.26046 1.886 -0.352084 -0.354733 -4.33478 -4.76531 -4.59114 -4.55589 
-3.26615 -2.15111 -3.74769 -3.97526 -0.370769 -0.285303 -0.323624 -0.356829 -0.195537 
0.0535207 0.707756 0.357354 0.379324 -0.177535 -3.31547 -2.28304 -0.177672 -0.176455 
-0.176667 -0.104678 -0.0721264 -0.039509 -2.17016 -1.76328 -1.92582 -0.334822 -3.53015 
-2.49749 -1.05698 -0.164662 0.724079 -0.147321 -0.520675 -1.53145 1.30431 -1.58155 
-1.97623 -2.8 -2.68574 -2.15827 -1.79756 -2.13599 4.1727 -0.199626 -0.196627 
-0.651333 -0.496384 -0.194894 7.085 6.80777 6.93555 4.61999 3.19303 5.21533 
-1.29878 -0.247333 -4.15442 7.70976 0.958331 -1.7967 -0.63933 -0.335055 0.254674 
0.287477 0.275772 0.29226 0.31334 1.59837 -0.594178 2.00467 2.95789 -0.0859035 
1.73248 1.76152 0.879991 1.23094 0.243815 1.30384 -6.33681 -1.74212 -8.23516 
-1.65046 -2.31679 -1.61689 -3.27374 -2.09807 -0.193649 -0.93971 -2.14017 -2.57243 
1.82611 -2.43135 -1.82782 1.35472 -3.06432 0.311356 -0.175147 0.263972 0.351824 
-0.253053 -0.58366 -0.683535 0.0395023 -0.557415 -0.282002 -0.387876 -1.8472 -1.68097 
-1.1809 -1.49894 -0.228329 7.57655 4.97804 2.11737 7.49225 3.30867 5.03437 
2.59531 6.47223 3.86723 3.66313 -0.0746231 -0.0278015 -0.108606 -0.191345 6.84862 
6.15095 4.52012 6.84176 3.58271 4.69448 5.06418 4.38649 0.900318 -1.20194 
-0.481341 1.45282 -0.567824 0.133332 0.791517 1.00968 1.63037 0.991759 1.82392 
0.695389 -1.99755 -1.93645 -1.7095 -2.16018 -2.09975 -1.5968 -0.988062 -1.55921 
0.102495 1.55175 -0.593372 -1.12542 -0.993472 -0.89483 -0.147604 5.01144 6.12655 
4.77257 5.15391 6.84336 0.956039 -0.752779 -0.811764 -0.802193 -0.696726 -0.744528 
-0.82398 0.485063 0.520827 -0.310877 0.491975 0.310786 -0.225156 -0.112165 -1.09072 
0.79743 0.61545 0.608432 -1.76508 -2.19395 -1.80959 -0.518267 -0.475381 -0.489445 
-0.471505 2.6036 2.57891 2.11594 1.77956 -0.905085 7.64668 0.493543 -0.199216 
0.578251 0.41721 6.01528 6.00234 5.67983 0.819264 1.11464 1.23119 -1.49603 
1.55819 1.02882 0.812498 1.35602 1.59794 0.177907 0.00672519 0.0266582 0.153412 
-0.790012 1.64212 -0.581102 -1.16993 0.446693 -0.315703 0.301723 -3.10845 -2.51796 
-2.76046 -2.16997 6.31812 6.43333 7.11507 0.0137016 0.115994 0.004063 0.106355 
5.46829 5.33282 -0.69439 -1.18969 -0.901371 -0.456588 -1.31129 0.0216458 0.124106 
0.322304 0.246829 0.455412 0.218968 -0.406348 -1.65447 0.834924 -2.59472 -0.90493 
2.50307 2.33607 2.34362 2.74952 -1.62331 2.64222 0.662304 4.10877 0.802699 
2.3339 0.708373 1.53682 -0.220578 1.67716 -3.73189 0.676336 -7.48478 1.37541 
-6.11521 -7.90702 -6.42742 -8.06754 -5.37803 -4.77487 -0.2186 -8.57386 -6.43498 
-8.3231 -0.787011 -1.00229 -0.893245 0.783645 0.788709 0.689658 0.73942 -0.397352 
-0.271174 0.267968 -0.304605 -0.352486 1.57792 -0.618767 -1.49985 -1.55226 -0.395806 
-0.530803 -0.563402 -0.640062 -0.65865 -0.691249 2.26598 3.46375 3.30378 0.682141 
3.93741 3.6172 1.86326 1.2494 2.54901 1.09754 1.24936 2.22209 -0.323056 
1.81508 1.74941 -2.57525 -2.58772 0.425595 0.324972 4.55101 3.93533 6.1097 
0.0328294 1.02708 -0.212933 -0.217805 -1.24052 -0.80994 1.04197 -2.83482 2.81117 
1.53057 9.04959 2.60565 3.78961 1.62763 1.59913 1.58054 1.60905 1.54354 
1.43573 -1.95601 -2.038 -2.05038 -1.93892 -1.70367 -0.867344 0.596504 0.637232 
0.564221 -1.84974 -1.69135 0.639835 -1.60263 -1.43096 -1.5749 -1.58719 0.212733 
-0.10304 -0.432433 0.326225 0.136016 1.58201 8.38973 0.402088 1.97413 0.259646 
-0.61914 0.27386 0.24971 0.221111 1.4963 4.58517 5.87713 1.60279 1.10311 
2.28646 1.67052 2.83921 0.468371 0.357084 0.434166 0.440227 0.604716 0.566845 
0.983769 0.79188 -0.49212 0.901626 0.208186 0.339845 -1.52855 1.20793 -1.61852 
-1.51018 1.10023 2.11054 6.63632 0.393047 -0.587338 0.232272 -0.299729 0.505523 
0.319249 -1.01606 1.9276 1.78183 1.88451 -6.52982 -7.45545 -6.65781 -7.66446 
-7.70125 -0.33536 1.56974 0.652353 -0.685995 -7.85884 -8.51235 -6.80758 -7.01553 
3.90196 7.00864 5.88625 6.19896 5.14231 4.59117 4.29378 5.3212 -0.0786866 
0.0312578 0.0815573 -0.153906 -0.150494 -0.0689016 -0.153823 3.0614 2.45844 2.57643 
-0.207958 -0.170445 0.890832 0.875819 -2.83246 -2.34891 0.810612 1.49871 -2.08871 
-3.25085 0.0202032 -3.89092 8.14037 6.87302 -4.39487 7.31594 -3.67103 -1.52387 
-1.13176 -0.761551 -0.728249 -0.75173 1.92944 -0.866996 -3.52496 1.48036 2.32974 
1.11017 -0.318744 -1.89318 -3.67631 0.175422 0.479829 0.334056 0.124417 -2.19797 
8.37965 0.152744 0.0827921 0.846813 0.912123 0.849722 -0.47438 0.611958 3.23168 
1.08521 -0.786802 0.465423 0.935072 0.839391 0.088352 0.484449 0.448318 -1.21745 
-1.48331 -0.84373 -1.00228 0.265588 0.372701 0.28534 0.335023 0.278798 0.328481 
0.320844 0.404268 0.326631 0.652555 -0.626659 0.750332 1.03699 -1.04861 -0.401708 
0.120303 0.556896 0.621957 -0.776753 0.503203 0.514867 -0.566472 -0.345586 -1.07806 
-1.23051 -0.341698 -0.339569 -0.377489 -0.333977 -0.326108 -0.0395355 -0.0870164 2.47748 
0.879537 0.797534 1.02519 0.653146 0.799244 4.02991 6.09445 4.7965 -2.45325 
-1.23864 9.5411 -4.42672 8.26662 4.8153 6.77219 -2.77118 0.273767 -4.82259 
-4.79759 2.20802 1.89511 0.135397 0.0665626 0.340548 0.581355 -0.243131 -0.294657 
4.18557 1.00143 -0.250602 -0.945859 -1.49035 -2.62883 0.71271 1.09742 0.36068 
0.701037 0.528295 0.560035 0.45162 1.03643 0.329973 0.0917638 0.234182 -0.47485 
0.253976 -0.534838 -0.44363 -0.337378 -1.00606 1.22161 1.66496 -0.0979203 0.604949 
0.800012 0.712245 0.227356 0.876264 0.307082 0.88518 3.77618 2.78413 2.57033 
1.90237 1.86927 -0.195151 -0.408401 -0.23212 0.521479 -0.377051 -0.431966 -0.186242 
0.00793773 -1.02616 0.221323 -0.531229 -0.526385 -7.6432 -8.03923 -8.21912 -8.09021 
-0.133552 -3.1023 3.35102 2.77273 2.7971 2.69382 2.64001 2.53673 2.07258 
0.823472 -0.221627 -5.22752 -1.96408 -5.56364 -6.58267 0.628844 -0.941599 1.08266 
0.858667 -0.864822 -1.09223 4.57119 4.97747 0.802915 3.03223 5.69885 5.83288 
-2.30301 -1.53723 -1.88496 -1.36106 -0.348623 -1.45189 -2.10684 -2.15532 -2.26778 
-2.09887 -2.19686 -2.12035 -0.454005 -0.291502 0.258166 0.320757 2.77353 3.74118 
3.39482 3.753 -0.468158 -0.407128 -0.39873 -0.374684 -0.193549 -0.0987497 -0.0405327 
-4.27884 0.815548 0.22401 0.154434 3.98293 5.4273 -1.81153 -3.28401 0.996249 
-0.47623 -3.34826 -2.85825 -1.28872 -4.6198 -0.684666 0.874997 -0.557535 -0.616588 
-0.756925 -0.0971176 -0.788245 0.217276 0.23744 -0.745819 -1.64085 -1.31065 -0.486115 
1.76402 -0.184923 -0.275719 -0.315031 0.44518 0.23847 -0.875311 -0.992749 -1.21014 
-0.7798 -0.788353 1.1495 0.924682 1.08524 0.246388 -0.404197 -0.405946 -0.434773 
-0.849571 -0.609884 -1.99298 1.59021 -0.599963 3.12726 2.93276 3.14862 3.06736 
0.266119 0.298071 -2.21528 -2.11183 -2.17874 -0.0618968 -0.193599 3.55993 4.80874 
3.64506 -0.203988 -0.226346 -0.237057 -0.239305 -0.228594 -0.195628 -0.221227 1.7459 
0.0804464 1.99232 -8.7542 1.85318 0.675969 0.872231 0.995395 0.788889 -1.10093 
-1.15168 1.37905 -0.685903 -0.451349 -0.6672 -0.770226 -0.290467 1.12191 1.08743 
0.49578 1.047 1.38677 0.527956 0.871132 2.36923 2.29533 0.881972 0.673074 
0.754406 1.50278 2.59023 2.4136 2.75773 2.93437 1.62359 1.60668 -2.34697 
-4.91819 5.27525 6.98113 1.05911 2.41419 3.28106 -1.13527 -0.555762 2.4013 
-0.215712 1.3671 0.974321 -2.08069 -3.73991 -3.84126 -3.38469 -3.97419 -0.823151 
-0.179788 -0.104435 -4.50269 -0.117531 0.84298 0.87511 0.849791 0.862006 0.836687 
-0.00510873 8.35882 -1.49837 -0.237247 -6.93087 0.691713 0.160599 0.364135 -0.929161 
-0.353306 -0.437265 -0.552477 0.0658107 -6.10579 -3.47243 -4.63428 -4.89076 1.07352 
-5.84122 -6.04592 -4.91002 -0.718156 -1.38023 -0.585438 -0.517462 5.37459 -0.718403 
-0.348578 -0.782431 0.405813 -1.13024 -0.578468 1.30194 -0.688592 0.227868 0.0401385 
0.275817 0.289039 0.299608 0.320857 0.38735 0.328027 -5.43243 0.233772 4.15364 
-0.0567932 0.0591369 -0.107553 1.74697 -5.52841 1.51219 0.999828 0.612299 -0.875886 
-0.391562 0.0943083 1.05398 0.442076 0.55305 1.61993 -1.30178 -0.583442 0.705337 
0.960566 -2.89968 2.59597 1.01676 0.709057 0.805668 8.27883 5.46303 0.793181 
-1.72842 -1.69431 -0.334181 -0.792347 -0.952145 -0.131656 -1.04947 -0.330657 -0.258465 
-0.433476 -0.597733 -0.409301 -0.235884 -0.404804 -0.39193 0.0889509 -1.00729 0.600939 
0.171321 0.254853 0.269905 0.186374 0.182803 0.832875 0.702297 0.0234145 0.85799 
3.31587 0.647317 0.28221 -0.242393 -2.1974 -0.247266 0.69234 1.02049 -0.103115 
-0.228898 -0.2287 -0.21733 -0.16892 0.102791 2.2558 -0.665725 0.275326 -0.391097 
0.733901 0.69684 0.210158 0.564207 -1.25278 -1.12445 2.19994 2.11186 1.04469 
-1.88962 -1.78316 -0.643854 0.00815991 -0.35092 -0.428241 -0.511189 -0.372052 1.11766 
-0.370221 -0.252011 -0.262323 -0.342388 0.59367 0.861545 1.008 0.0644314 0.529757 
-0.271776 0.0329494 -0.249524 0.289453 0.24758 -0.136527 -0.149513 -0.092947 0.1802 
0.171438 0.234941 0.329974 0.397752 0.275997 0.420927 1.69296 0.0628042 1.30165 
-0.356211 -0.407824 -0.731937 1.23324 0.781158 1.03277 -2.19985 -2.19013 -2.08405 
1.53906 1.7076 0.843617 0.238845 0.0212958 0.196089 -1.13295 1.44156 1.43152 
1.60054 0.121401 -2.31516 -1.92768 -3.07063 -4.30218 -0.593863 -1.02082 -0.180268 
1.47099 -0.314905 0.421848 3.08478 0.947628 -5.30803 2.21962 2.09198 1.28333 
1.06447 -4.33628 -1.46066 -1.62228 -0.856946 -1.16464 -1.62534 0.0126733 0.0085665 
0.518598 2.13345 -1.09227 0.156726 0.325073 0.535283 -0.201583 1.15201 1.30463 
1.04396 0.45398 4.24385 0.642232 -0.59634 -0.917362 -0.497765 -0.524301 0.000454742 
0.0807533 -0.742465 -0.819219 -0.440687 -5.31701 -0.0302747 0.790808 0.0985971 0.123729 
0.178264 0.0847494 7.12831 0.283166 -0.105243 0.222963 1.01353 0.299961 1.36823 
0.503467 -0.192044 0.610057 0.372263 0.132446 0.179406 0.340896 0.140451 0.33699 
0.599623 0.363709 -0.676584 -0.0903349 0.0431336 -0.532776 -1.09221 0.524311 0.551439 
-1.24485 0.348228 -5.64257 1.84528 2.49616 -0.062033 -0.108133 2.97278 -3.54141 
-3.65634 1.12136 1.41813 -2.75865 0.221818 -6.25817 1.61914 0.622377 1.4343 
1.30348 0.969984 1.99947 -0.666555 -0.843297 -1.42886 -1.30804 -0.88573 -1.53145 
2.2227 -0.314716 -1.58918 -0.329792 -0.950586 -1.10059 0.773074 0.121772 -1.58312 
-0.87405 2.48583 -0.429685 7.60935 0.346277 7.87448 6.67824 4.99699 5.70439 
1.25616 -0.0942187 0.893392 6.21568 0.564894 -1.31025 1.53671 1.45452 -3.32772 
-1.11623 -1.55921 0.282172 -1.59998 0.955169 1.10842 0.0443908 0.429272 0.365568 
1.86667 0.40725 1.52571 -1.65413 -0.88836 0.559921 -0.758259 -0.342494 -0.96273 
-0.475283 -0.821222 -0.469477 0.319947 -0.70036 0.215401 0.330927 1.17499 -1.51015 
-1.36585 3.30977 0.28705 0.331901 0.720419 0.218946 0.376109 0.22608 -1.88109 
0.0532821 0.313955 0.306567 -2.06084 -9.53523 0.382623 0.268049 0.227086 0.294619 
0.33497 0.273174 0.23839 0.20337 -0.179776 -1.21612 -0.142552 -1.16684 -0.803237 
1.46936 2.94313 1.70068 1.51831 -0.740123 -0.855595 -0.541758 0.0470645 -0.519296 
-1.22865 -0.924733 1.01863 0.523763 0.996654 1.42112 0.821311 -0.00964856 -0.978682 
2.72831 1.9245 -1.40031 -1.35436 -1.88735 -2.34407 0.235406 -2.53796 -2.47664 
-1.3144 -0.272582 -1.14894 -0.667817 0.406836 -0.185177 0.315728 -1.17122 0.0283051 
-0.179491 -0.0625044 0.267828 0.102942 0.121447 -0.0362668 -0.441016 -0.458889 -0.291412 
1.49288 -1.523 0.793404 -0.15835 -1.04538 -2.83991 0.112061 -0.106067 1.5516 
0.24102 -0.27438 -0.243793 0.29385 -2.10494 -0.988602 -1.32956 -1.6833 -0.339814 
-3.92619 -1.64166 -1.48761 -3.16717 -5.35737 -1.77859 -0.241038 -0.29916 -1.7307 
-0.228751 0.0249799 -0.287935 -0.309711 -0.416097 -0.306843 0.136132 -0.476984 3.01357 
-0.988037 -6.79955 -0.211458 -5.85124 -4.56889 -8.0333 -6.87511 -10.3226 -0.0428125 
-0.670213 3.75585 3.15237 2.82383 1.6534 2.3033 6.15758 -1.14212 -0.713673 
0.637267 0.711142 0.698339 10.5303 -1.22216 5.75412 0.507716 1.73683 1.7277 
-2.17384 1.31648 1.38755 1.80701 1.5313 -1.25854 0.624907 2.2349 1.57541 
2.18301 2.77173 3.0785 -1.60516 2.57889 3.32707 1.82688 0.520747 1.16825 
-0.839233 -0.343179 -0.397108 -3.82309 0.21648 -0.427758 -0.399662 -0.395599 -0.377877 
-1.15221 -0.460646 -8.82605 -0.131975 -2.91476 0.990775 0.717487 1.15778 2.08861 
-0.446467 -1.09862 -0.149294 -0.793428 -0.159304 -0.212593 -0.612974 0.449692 -0.653087 
-0.909674 0.516772 1.01637 1.01543 0.00976278 0.406444 0.116294 0.644897 0.0121626 
1.88266 -0.404794 0.388352 -0.64969 0.355359 0.689648 6.96192 2.0321 7.03421 
7.05601 3.36523 -0.957329 1.09242 1.16901 0.902361 0.0775461 0.555312 0.866224 
1.60576 0.919631 1.46578 1.86326 1.60738 -1.10725 1.54281 0.528697 -2.01946 
0.504683 0.577125 0.531768 0.525808 -0.582284 0.239339 -1.20177 -0.487399 -0.531988 
-0.906264 -1.00988 -1.00813 -1.12958 -0.94366 -0.28747 -0.330322 -0.331643 -0.18809 
3.79408 -0.695802 -0.370883 -0.503365 -0.598303 3.27545 -1.00834 -1.34776 -0.52427 
0.00756089 -0.364581 -0.308582 -0.299431 -0.670178 -0.146082 -0.308446 -0.728575 -0.341765 
-0.484223 -0.461022 -5.29318 -4.97944 -0.766729 -0.605167 -0.605633 0.0646421 -4.8277 
0.895985 -0.309097 1.50704 1.08378 4.49924 0.372964 1.96826 3.81671 2.66351 
5.01024 -0.540324 -1.03549 0.261194 0.25456 0.505326 -0.450683 -0.444981 -0.290635 
-0.433742 -0.466931 -0.445491 -0.385036 -0.507574 0.237084 3.37647 -0.512962 7.06156 
-0.826304 0.206706 -0.100586 -0.849924 -0.671628 -0.392876 -0.326956 -1.36884 -0.327463 
-0.0782599 -1.30586 -0.476071 0.192433 -1.32179 1.94778 0.0585538 1.38277 0.217119 
-0.811961 -1.16675 -0.840924 1.0821 -3.05603 -1.84102 0.991698 -0.34102 0.322098 
-0.6882 -0.296774 -0.0705597 -1.77537 0.23926 -0.686276 -0.419462 -0.398037 -0.236703 
-0.218662 -0.18163 -0.136341 0.558842 0.04827 0.0489346 -0.344753 -0.224349 -0.966416 
-1.70953 -3.13495 -0.568299 2.23915 1.46784 1.21743 0.157459 0.109735 0.209348 
0.161624 1.14723 -0.0673177 0.329544 0.61295 0.461555 0.39726 0.140123 0.158934 
0.0928866 -0.188111 -0.387478 -4.99515 -2.11658 -2.41613 -0.204088 -4.38171 4.64172 
-2.10797 -0.379829 -1.3252 -0.383628 -0.425726 -0.303945 -0.473429 -0.362499 -0.42961 
-0.460409 -0.293683 -0.84481 -0.411264 0.419835 -2.07433 0.557207 1.63837 -2.14267 
0.938032 0.149717 0.242187 0.179247 4.38044 2.05808 0.263851 0.0701351 -0.362006 
-0.442676 -0.477197 -0.557867 0.921216 1.14352 -0.574963 -0.655633 1.26582 1.70778 
1.66304 1.23725 1.57472 1.36867 1.68185 1.48488 1.79075 1.77518 0.168407 
-0.848279 -0.54563 -1.06707 0.219499 -3.62252 -3.48117 -1.46751 -1.52311 -0.344787 
-0.788781 1.31643 1.52831 1.52179 1.05252 2.02575 2.28027 2.35658 -1.86126 
1.03861 -2.12365 -0.401912 -0.976538 -0.26276 -0.83795 0.0163975 0.93006 4.61542 
1.78328 -0.113058 5.09494 2.62291 3.37526 -9.24385 -0.809347 -0.298589 -0.00883299 
-0.556437 -1.17288 -2.59956 -0.887267 -0.090612 -0.426565 -0.749295 -1.09369 -0.578263 
-1.59325 0.906553 -1.41791 -1.10065 -0.454936 -1.11579 -0.382976 -2.52017 -0.852385 
-0.825922 -0.910361 0.364484 -0.638088 0.326559 -0.871921 0.232532 -0.00538941 0.462352 
0.213987 1.3229 0.886001 0.703563 1.70603 1.61362 1.44861 1.40255 1.50452 
0.632324 0.957976 1.48322 -4.46713 -1.84748 1.13941 0.497051 0.0623439 -0.606691 
0.084526 -0.28497 -0.902506 -0.256729 -0.713181 0.928212 -0.100229 -0.777493 -0.716835 
-0.293245 -0.657383 -0.48626 -0.863498 -0.611512 0.995937 2.05989 2.35913 2.28343 
0.871846 -0.113361 -0.116705 -0.158757 0.264337 -6.83164 0.154839 0.219673 0.979145 
0.509059 0.561322 -3.74203 7.41876 -0.0087285 0.700783 0.064379 1.20982 0.0886547 
0.629415 -0.511356 -0.225024 0.80033 -0.0129715 0.566059 -1.18695 0.138462 -0.270823 
0.487772 10.2558 5.4796 1.94899 1.24471 0.988368 0.0622707 1.44832 1.75083 
0.275824 -1.68833 0.448024 -0.262788 1.94397 -2.71681 -1.70595 -0.0353097 2.99907 
1.00945 1.3115 0.361311 0.0366351 -3.37268 -4.55538 -2.43866 0.387941 0.486111 
0.164148 0.45524 1.03177 0.106374 0.0438441 0.033497 0.474996 0.0293503 -0.0113651 
-0.187225 0.246861 0.0471194 0.0429728 0.083358 0.0637488 0.0534685 0.8395 0.164611 
0.0516118 -0.395532 0.96911 -1.68008 -0.513873 -0.677595 -1.73606 0.0478977 -1.10904 
2.31272 -1.62331 0.127082 0.112069 0.298625 1.08067 -0.588202 1.01309 -2.42899 
-1.40792 -0.195764 -1.04196 -1.68784 -1.79044 0.96011 0.858697 -0.502569 -0.640338 
-0.773442 -0.660185 -0.372594 -1.73779 -0.243645 -0.540342 -0.949243 -0.375447 0.537128 
-0.397518 -0.329872 -2.11047 -0.284788 -0.238729 -0.244503 0.360846 -0.0265486 0.0110748 
0.118093 0.0430252 -0.231143 0.0163939 0.241411 0.154352 0.086377 0.0115449 -0.150418 
-0.0414327 -0.582069 0.00551549 0.093357 0.560881 0.535413 0.381259 0.330859 -0.124557 
-8.69633 -0.497558 -0.529054 -8.77752 -8.6478 0.268691 -2.47755 1.13724 1.03961 
0.0309631 1.20411 1.19981 0.0865723 -9.34754 1.64078 1.1636 -0.792913 1.10807 
-0.192828 0.292332 1.30565 1.17392 1.2765 1.18609 -3.74503 -0.5582 -0.564717 
-0.774063 -0.552295 0.395157 -0.841961 0.259685 -0.157678 -0.251496 2.79369 -0.144691 
0.320916 2.20436 -0.551924 -0.469068 -0.74318 -0.974975 -0.341949 -0.0749378 -0.112953 
1.58748 -0.0250139 -0.0367286 -0.0428098 0.0415865 -1.30343 -1.74005 -0.351262 -0.761411 
-0.375874 0.0791699 0.452186 1.54803 -6.43156 6.70459 -3.98031 3.00388 3.05195 
3.25016 2.87799 1.34753 1.06174 1.08488 0.991797 0.472997 0.774437 0.824426 
0.522985 -4.71296 -5.26359 -5.47114 -2.93728 -0.692364 -0.386054 -0.341994 -0.701529 
0.65033 -0.0108576 -0.497633 -0.709178 -3.83038 1.14617 -4.44152 -2.67924 -4.1957 
0.541168 -0.726243 0.689335 0.604951 0.512275 0.724083 -0.764794 0.762933 0.607449 
0.607624 1.67899 0.843887 1.08077 0.343171 -0.0521123 0.208356 0.108246 0.166483 
0.240237 -0.42873 0.286 0.00403681 -1.08428 1.43201 -3.76382 1.58461 1.09522 
-0.028624 1.24824 1.66963 -0.542354 -1.251 -0.512958 -0.270323 -0.306285 -1.4094 
-0.719049 3.95432 2.53246 0.914416 -1.15748 -0.801147 -0.185081 -0.674809 1.98505 
-1.05614 1.05594 0.236923 9.90225 -0.0534634 -1.60387 -1.49047 -1.62196 0.450331 
0.622986 -2.04458 0.361477 0.932542 0.954714 0.675732 0.877568 -0.991878 -0.670752 
-2.29105 -0.0229301 0.249826 -0.109267 -0.111462 -0.112595 -1.43656 -1.44597 0.988884 
-1.51316 0.663189 1.67604 -0.180606 -0.749425 -0.602214 -1.00551 0.833373 0.658367 
0.828551 9.63463 9.43583 -1.42834 -1.38208 -1.46025 0.941501 0.930779 0.447609 
0.499872 -0.303974 0.238545 2.11602 3.22703 1.39263 2.83319 0.371925 2.49206 
0.685089 -1.44413 1.22713 -1.07352 -0.163725 -0.119296 -1.06006 -1.01349 -0.998322 
-1.00868 -2.31048 -0.745952 -0.926576 -1.14109 0.857256 -1.19776 1.17999 -4.05727 
-0.467087 -0.511802 -0.478841 -0.486902 -1.18832 -0.924946 -0.457991 -0.640679 0.440084 
-3.34273 -0.688075 -3.44691 0.410017 1.3621 1.15886 0.549059 0.503716 -0.87425 
-0.819509 -0.882164 -0.923324 -0.936343 -0.882677 -1.21619 1.9729 -0.682118 -0.0887518 
0.467217 0.300107 0.556999 -2.84002 -2.98975 0.139169 -0.489747 0.941814 -0.391668 
-0.316546 -0.35333 -0.335932 0.301556 -0.413305 0.344154 -4.26964 -0.3861 -0.775791 
-0.953236 -0.233881 0.0541128 -0.773722 -0.805205 -1.23324 -0.299568 -0.683414 -1.04683 
0.682314 1.47558 0.259858 -0.256267 -0.399432 -1.71707 -1.31831 -1.48153 0.886721 
1.1537 1.25236 1.16664 -0.0268923 1.12112 1.51855 3.14041 2.95148 5.56958 
4.77895 2.69614 3.52874 4.12258 0.424744 -0.840721 2.1237 2.22229 1.99938 
2.09797 -1.73512 2.92673 0.297362 0.272423 -0.230318 -0.231168 -3.62276 -2.43495 
-4.54565 -2.05367 3.44331 -9.8682 0.0776802 0.0947947 0.444758 0.330268 1.43422 
0.448819 1.09285 3.2715 -1.15593 -8.31154 1.02359 1.17394 0.965462 1.11581 
-0.235961 -0.375259 3.34128 1.41244 1.36039 -0.914245 0.0281954 -0.25602 -0.480842 
-0.896629 -0.900614 -0.839403 -4.66129 -0.851043 10.4875 -1.36737 9.39458 0.0875294 
1.10186 -0.282673 -0.622449 -0.29267 -0.748535 -0.333271 -0.340735 2.97754 0.602953 
3.78825 1.81634 3.33716 -0.930115 -0.644761 0.23748 0.310441 0.365899 0.173289 
0.768104 1.08629 0.733996 0.722049 0.617602 -0.717064 2.54971 -1.47111 -1.08425 
-1.19135 -1.30553 -1.10173 -1.19839 1.39144 0.787771 0.800315 1.88145 -0.190225 
0.619133 -1.28346 -1.42583 -0.985678 -1.39522 -0.862468 -1.72824 -1.29459 -1.29612 
-4.88293 -4.41 -3.79851 -0.218503 -4.89516 -5.60256 0.953878 2.08938 4.4217 
-0.816208 1.51199 -0.180102 -0.388042 -0.137371 -0.187925 -0.185401 -0.271093 -0.329593 
-0.331696 1.44413 3.03264 -0.135116 0.297127 2.5842 0.37754 0.48317 -0.0952853 
0.392999 4.99749 -0.477449 0.350376 5.01109 1.7617 0.425949 1.19697 1.15691 
0.817009 0.0516104 3.03792 0.745482 0.501978 0.382701 0.0614806 -0.261182 -0.631529 
-0.367435 -0.761194 -1.07483 -0.19511 0.269366 -0.198711 0.507678 0.935927 0.305698 
-4.22593 0.213368 -3.054 -6.90401 -6.53866 0.168101 -5.96178 3.65804 0.818431 
-1.39967 0.801523 -8.62614 -3.47024 1.09978 0.627373 -0.676979 -1.55916 0.136674 
-2.61276 -4.22738 0.47515 2.31326 -0.733418 -1.54876 0.15555 0.0748589 -0.0419413 
-8.95438 6.78748 -0.025753 -0.022213 -10.341 4.31643 -0.933927 -0.408819 -0.576927 
-0.962745 -0.926247 -0.850569 -1.06584 -1.04913 -0.336731 -1.18872 9.17508 -0.0187387 
-0.220361 -2.19187 0.0877031 2.70381 -0.835382 -4.03861 -1.40393 0.444644 0.222367 
-1.01426 -0.578394 3.84279 2.68756 -0.935524 2.78415 2.58274 0.671914 5.91469 
0.0173844 5.10634 5.97913 -3.44867 -0.40102 -0.0839031 -0.678655 -0.705911 -0.460764 
-0.342545 -0.326407 -0.262303 0.23195 -0.673329 -1.99336 -0.506886 0.992328 0.999852 
0.526108 -0.712955 1.43613 -0.319638 -1.50782 -1.32985 1.68205 -0.806038 -1.55436 
-1.00651 -1.14312 -1.3994 -3.13976 1.65403 -1.04742 1.45449 1.2245 -2.56145 
-0.45434 -0.243226 -0.0347101 0.195611 -0.203594 1.37225 1.4087 -0.731483 0.253868 
0.340735 0.45672 0.635105 0.294505 0.418408 0.640148 0.515621 0.879466 0.893036 
-1.69932 0.793575 -0.571988 -0.539719 -0.601815 -0.625095 -0.693911 -0.7029 -0.935566 
3.3814 4.17636 3.37035 -0.162101 0.0199213 -0.153199 -0.0070703 0.417003 0.0237276 
-0.770464 2.83778 0.337521 0.337715 0.329457 0.352417 -0.20159 0.383199 0.579145 
-0.289208 0.459069 -4.24744 -5.71636 -6.01624 -2.12002 -3.55161 -4.46349 -3.67201 
-4.51298 -2.78636 -0.910841 -0.770247 5.74876 -0.924893 -0.731888 -0.583044 -0.232328 
-1.77037 -2.24706 -2.50404 -2.03609 -1.83734 -2.52991 -0.510987 1.47398 -0.0961937 
-0.164285 0.909536 1.14685 0.827638 -0.19379 0.541647 -0.867778 -1.09296 1.0791 
0.214834 -0.327342 -0.806656 -0.300536 -0.18473 -0.631365 -1.48771 -0.387648 0.294762 
1.53975 0.0943337 0.128932 0.135736 1.03253 -2.42122 0.473266 -0.171576 -0.282078 
-0.239222 -0.642908 -1.05766 -1.11989 -1.0131 0.371432 -0.0632294 0.152884 0.766595 
-0.285778 0.245028 0.738758 -1.38476 0.315914 4.09586 0.906691 1.52238 -1.26185 
3.46745 2.73542 3.85669 3.51351 -1.76438 -1.75942 -0.409929 -0.0918647 -0.607173 
-0.367085 -0.442935 -0.04024 0.526964 0.509163 0.389272 -0.113164 0.723713 2.17171 
-0.402875 5.71344 -0.516147 -0.567567 -0.477181 0.942655 1.18234 -3.26642 -0.63627 
7.30953 -0.694486 -1.14629 -2.48935 0.63905 0.622441 0.620086 0.603478 -0.540542 
-0.355954 0.415739 -1.97433 0.461501 0.64534 0.0681819 0.84208 0.754848 -4.2185 
1.38543 -1.51056 0.88921 -1.27885 -0.58883 0.671158 -0.806396 2.73156 3.99816 
2.88704 -0.642093 -0.886493 -2.50433 2.8928 -2.1393 -2.79677 -2.45611 -2.73594 
0.811763 1.68572 4.02901 0.845985 2.72843 -0.897937 -0.684567 -0.572249 1.20688 
0.286709 -0.709482 0.470732 2.3707 0.996595 2.28256 0.353947 3.1064 2.5443 
3.1894 2.64073 3.40725 3.30799 2.2947 1.22648 -0.0608995 3.20995 3.94981 
0.810628 0.103479 -0.0502706 -1.15714 1.76015 1.6914 2.92827 -1.48811 0.663173 
0.920789 -0.299247 1.14076 0.59615 0.262095 -0.0164511 -0.0886872 -0.405015 -0.189912 
-0.0351937 -1.34904 0.450009 3.8592 -0.833875 0.735313 0.321108 0.233771 0.297893 
0.345638 0.270484 0.318228 -0.972734 -1.28869 -1.34064 -1.2653 -1.04945 9.73839 
-1.13584 -1.14442 -1.55705 -1.48505 -0.213171 -0.192231 -0.202731 -0.200054 -1.03322 
0.23534 0.370089 0.435641 -0.228344 -1.63458 -1.304 -0.312247 -1.42196 -0.761474 
-0.31971 1.91191 2.00574 1.71082 -0.666625 -2.04738 2.78013 -2.49003 -2.51293 
-8.85292 -5.44277 3.64254 3.12718 -0.340214 -5.34709 3.74091 0.331121 2.40976 
1.68296 1.77237 2.4642 1.52926 -0.0225864 5.89624 3.42655 3.55369 3.36102 
3.61919 -5.86574 3.09154 0.278348 -1.11834 -3.25344 0.239417 -0.50638 -2.79479 
1.07771 1.18387 0.0416764 -0.687955 -0.35224 -0.199731 -0.866962 -0.832423 -0.781357 
-0.685445 -0.720403 0.583197 0.57582 0.575995 -0.132313 -7.18379 4.00212 3.70053 
1.72796 2.66792 3.41024 4.67824 3.86705 4.22144 -0.744511 -0.64258 -0.295911 
0.144912 0.261892 0.206989 -0.666668 -0.965348 -0.564737 0.273947 0.787225 0.611292 
0.583794 0.382277 0.887678 0.592681 0.317698 0.297013 0.348786 0.768134 0.196599 
0.355007 0.39661 -6.1897 0.178484 -7.02839 0.685972 -0.492777 -0.265268 -0.261454 
0.791051 0.718205 1.1299 -0.449524 -6.53339 -6.71145 -5.68929 -5.78791 -4.99296 
-0.0769308 -4.67619 -0.513089 -2.86057 -0.452831 -0.366514 -0.507118 0.864874 1.48654 
0.787906 0.84756 1.04578 3.92142 3.85592 4.09441 -0.158081 -0.321184 -0.0501319 
-0.48019 -0.296193 -0.011727 1.01952 1.44696 0.087788 0.284551 0.0289578 0.817017 
-0.179662 6.33779 -0.675803 0.447287 0.0897008 -4.53474 0.309445 0.369313 -0.224276 
-1.7279 -3.17054 -1.76078 -1.68878 0.797037 -0.0811398 -0.2579 -0.232399 0.19768 
0.0785013 0.255309 0.290325 0.287475 -2.46765 0.344301 0.831503 0.641079 -3.03698 
-0.738702 3.79998 -0.0285832 0.112007 3.05723 -1.36826 -5.77006 -0.531326 -0.236486 
-0.457232 -2.2947 0.460148 -0.823963 -0.0214099 -5.40508 -0.0800553 -2.07326 -0.0728214 
-0.140294 0.038307 -5.90675 -5.5736 -5.2187 -4.62086 -0.0692448 -0.0968837 9.97981 
-0.362519 -0.00459729 0.803226 1.13026 1.10205 0.414611 0.799273 0.622872 -0.0661391 
-0.190945 -0.159847 -0.151061 -0.675545 0.144113 0.922862 0.222616 -5.98686 -6.85721 
-1.91768 6.21843 5.70963 3.65515 0.886268 1.10587 4.94711 -0.868622 -0.270004 
-0.771478 -0.875687 -0.786814 -0.856511 8.67235 7.1876 -1.39771 -2.26325 -2.42244 
-2.87578 -0.750552 1.24323 -1.44806 -1.53473 -1.70329 0.933224 0.663155 0.170443 
-1.08144 0.355512 -2.35743 -1.49814 -2.63341 0.654098 -1.69719 0.637056 0.516561 
0.689473 -1.04776 0.653939 0.571828 -0.663421 -0.597756 -0.872008 -0.931789 -0.754646 
0.301983 0.273774 0.168699 0.498633 0.688048 0.928669 0.287429 -1.29216 1.30375 
1.33767 1.18086 0.426149 2.70557 -0.26519 0.698014 -0.960177 -0.273745 -2.52541 
-0.288628 3.58474 2.12507 4.28938 0.110504 3.13746 2.0715 -0.0619264 -2.07666 
0.389772 0.23233 0.732572 0.88083 0.0194408 0.226283 -0.63171 6.20765 -0.531617 
-0.475428 6.17232 -0.93966 -1.02605 -1.0834 -0.99701 -0.901553 -1.50392 0.29325 
-0.264871 -0.745207 0.170317 0.682655 1.03982 1.41756 1.37811 -1.2698 -10.1086 
3.07812 0.515547 0.0543409 -0.18971 -1.71252 -1.28895 -0.93095 -1.0038 -0.992699 
-1.14923 0.226223 -2.08569 -3.74646 -2.25454 -5.66003 -1.26887 -1.1514 -1.23364 
-1.02968 -1.46332 -0.0222389 -0.175023 -0.17698 -1.01777 0.390911 0.393335 -5.09027 
0.825487 0.594871 1.10805 0.9734 0.435019 0.937348 -0.108394 0.260553 0.0869539 
0.474915 0.318198 0.476774 0.222175 -0.445162 -0.870558 -0.690965 -0.505576 -0.619726 
-1.04014 0.740577 2.85043 -0.303657 -0.866637 -0.0181497 -0.0174585 -0.0538978 0.899981 
0.880378 0.838569 -0.379256 0.264042 -0.820124 -0.94952 -0.744645 0.511582 0.433962 
0.520526 1.04642 -2.51944 -0.257882 0.456375 -2.63768 -1.45817 -1.8924 -0.721105 
-3.04661 -3.3606 -3.69745 0.198364 -3.69531 -0.127664 -0.232847 1.42008 0.316094 
2.26624 1.2127 -0.762912 -1.61251 -1.34411 -0.98945 0.683765 0.258006 1.16083 
1.94207 -0.380006 -0.121827 -0.123385 1.1479 0.2798 0.673746 0.673202 0.507893 
0.480799 0.935854 0.42949 4.83617 -0.0365189 2.45026 -1.00901 -1.03341 -0.190725 
-0.521296 -0.0979638 -0.464419 -0.11776 0.0626264 -0.0103379 -0.790011 -0.527175 -0.711326 
0.415831 0.384544 2.39539 1.43906 0.759577 1.20096 -1.52892 -1.70889 -1.80245 
-1.62248 1.81609 0.128075 0.202162 -1.49429 -1.52295 0.0963496 0.179964 -4.62372 
-0.246704 -0.95397 -1.52862 0.760863 -2.32723 6.91321 8.58658 9.06926 1.13214 
0.412726 0.818913 0.701505 0.694633 -4.88224 0.507136 0.642888 0.112835 -0.0749708 
0.277084 -0.957456 0.0438139 -0.60646 -0.67747 4.71437 -2.38506 -1.16451 -1.36832 
-2.02441 -0.526861 -0.457176 0.217353 0.259951 -0.23007 3.66362 3.64611 -5.68255 
-5.17381 -3.65446 -1.51489 -4.44513 -1.083 -1.01912 -1.27239 0.495128 -0.0326149 
-0.455494 0.605677 0.435487 0.198906 0.201517 0.0923772 1.85062 -0.781848 -0.346645 
-0.283827 -0.28947 -0.264918 -0.218268 -0.283184 -0.27104 -1.02465 -1.57202 0.976681 
-1.32621 3.3306 3.98695 1.74754 -0.810811 -0.445296 -1.48131 -1.27537 1.12986 
2.85199 -1.04583 0.676295 0.237972 0.200223 0.3248 0.973327 2.53777 1.35092 
2.36669 0.224475 -2.37532 1.17985 -0.60617 -0.184361 0.256369 0.27611 -0.627259 
1.34754 0.256068 1.53009 0.25565 1.80461 1.48991 -6.82448 -0.699793 -0.854819 
-0.927123 0.456689 -1.24225 -2.08966 -0.584059 -1.31895 -2.47051 -0.998989 -1.29918 
-0.997789 0.818966 0.0427727 -0.26604 0.183302 0.224683 1.3256 0.094988 1.3009 
1.14041 1.17942 0.594932 0.187487 0.790335 0.697408 0.196116 0.0374017 -6.96972 
0.331135 -0.374854 0.723008 1.29914 0.292625 -0.734593 -0.0425218 3.69693 -1.64289 
-0.962456 -0.0418732 -0.247791 0.877896 0.714623 0.913088 2.49148 1.11615 0.0060342 
-0.279693 -0.342683 -0.696682 5.09416 5.12255 -0.40095 -0.153481 -0.431225 -1.08332 
0.674193 -0.84406 0.34962 -1.06365 -6.05295 -1.27979 0.234953 -0.81065 -0.785807 
-0.756932 -1.08719 -1.051 0.345911 0.354646 2.08346 -0.263127 -0.00180411 2.53694 
2.46124 -0.339744 2.37103 0.139405 0.227607 0.212237 7.45783 0.098671 0.654726 
8.64179 0.705324 0.969149 0.82417 0.579378 0.860509 0.735206 0.918025 -0.510425 
-1.28188 -0.337635 1.05991 -3.87431 1.03535 -0.701208 0.296475 -2.04465 0.896761 
0.925376 -4.50738 -0.909169 -1.15357 -0.178157 -0.17047 -1.4576 -0.99938 -0.678118 
-0.691134 -0.53297 0.264217 -1.11629 -1.13848 -1.43201 0.938875 0.32318 0.285984 
0.344278 -0.345906 -0.363605 -0.399063 0.807035 -0.343797 1.61835 -0.247839 0.119651 
0.0110823 -0.0312157 -0.168602 -0.126304 0.213693 -0.993711 2.87132 2.84952 -0.216202 
-0.46657 -0.884978 3.39618 2.19654 2.35259 -0.147973 0.411178 -0.0730453 0.101176 
0.0897713 -1.06408 0.371495 1.1502 3.14784 -1.40011 -0.735478 0.299332 6.62719 
0.232173 7.81115 0.0122376 -0.461986 -0.699063 -0.00314307 -0.816436 0.996149 1.44318 
-0.214848 3.13737 1.98545 2.88701 1.77055 -1.81799 -0.163154 0.375172 0.304086 
0.331311 0.988947 -0.998447 -0.9098 -0.957838 -0.520017 -1.01694 -1.11042 0.798596 
0.948946 -0.760095 -0.594479 0.183149 0.285832 0.267352 0.463489 0.478546 0.0553056 
0.216559 6.49916 1.46373 8.40407 8.38825 8.5353 8.51948 1.47231 -1.30816 
-6.28087 -5.50934 -1.12262 -0.981112 -1.02071 -5.04345 -1.12228 -1.10673 1.13059 
0.0579164 -0.585481 -0.879032 -0.0934605 -0.129652 -0.35083 -0.460421 -0.313863 -2.08901 
-0.201432 -0.389001 -0.128682 -0.333887 -0.488002 -0.243925 -0.130219 0.963117 0.198054 
-0.479867 -0.507882 5.99036 -0.583894 0.790416 0.192008 0.774772 7.47286 1.16522 
0.948982 1.10185 0.0538603 0.949299 -1.07423 -0.541478 -0.375863 -0.438502 0.291002 
-0.478644 4.59782 4.62621 0.685259 0.900767 0.439654 -0.337974 -1.20136 -0.763336 
0.982522 1.07575 1.22107 0.441231 0.733322 0.842624 0.433349 -2.28327 2.25493 
-2.69784 -2.35313 -3.10426 -0.172281 -0.134281 0.0866144 -0.297695 -0.738588 -0.114227 
-0.505462 3.67943 -0.594351 -0.745977 -0.615062 -0.558899 1.13683 0.971682 0.0939682 
1.02229 1.16761 0.267301 0.282652 2.11765 0.273549 2.25901 0.320382 2.00431 
-0.821626 0.487192 0.027682 0.0752954 -0.141512 -0.242722 -0.0259141 -2.56374 0.381771 
-0.806264 0.386656 0.32625 0.598343 0.443669 0.891668 0.988294 1.15379 0.707883 
-0.359587 0.84415 -0.363505 0.177847 0.107688 0.125803 0.155929 0.137814 0.526025 
0.452297 -7.79089 1.21811 1.34595 -0.328004 -0.325894 0.208759 1.08955 1.26916 
0.161035 -0.261889 -0.718756 -0.895685 -0.157401 -0.811187 0.299039 0.609896 0.270181 
0.179256 0.167329 0.187888 0.0969632 
METADATA
INFORMATION 0

EQ_STRAIN 1 15232 double
0.186651 0.509485 0.157529 0.17083 0.394647 0.377854 0.281271 0.407839 0.382329 
0.371821 0.441514 0.442437 0.244909 0.415907 0.477348 0.437269 0.472569 0.433582 
0.389133 0.419826 0.548921 0.503423 0.373365 0.400209 0.394959 0.289072 0.390503 
0.327595 0.420322 0.374148 0.391908 0.496071 0.234081 0.505287 0.422924 0.386662 
0.427542 0.331085 0.406455 0.402528 0.222311 0.572815 0.409097 0.46522 0.424598 
0.498791 0.179943 0.593071 0.36997 0.474202 0.405142 0.588743 0.490963 0.498065 
0.437077 0.488486 0.358615 0.521152 0.388283 0.407793 0.445029 0.448701 0.397273 
0.46199 0.522532 0.391092 0.425153 0.501354 0.414807 0.476895 0.250125 0.398133 
0.436866 0.41779 0.567707 0.199163 0.135292 0.204318 0.324828 0.457725 0.54489 
0.425915 0.427367 0.492033 0.424109 0.408391 0.483985 0.439039 0.209198 0.356856 
0.503892 0.395516 0.431915 0.36845 0.333171 0.381162 0.360484 0.484669 0.377627 
0.455008 0.187587 0.477924 0.563812 0.569639 0.381702 0.594611 0.359939 0.366638 
0.388655 0.359848 0.420149 0.448319 0.484373 0.40864 0.362482 0.36604 0.418827 
0.453587 0.508254 0.50075 0.4168 0.448998 0.424284 0.434937 0.45803 0.417832 
0.450988 0.424381 0.505591 0.368112 0.413504 0.469172 0.428681 0.390542 0.384831 
0.417837 0.392461 0.495257 0.413799 0.366999 0.324908 0.148787 0.505034 0.476685 
0.459951 0.377772 0.160523 0.1855 0.41314 0.426297 0.50896 0.472967 0.401336 
0.385629 0.392859 0.361306 0.389689 0.315813 0.406615 0.329721 0.24893 0.218867 
0.427526 0.423687 0.508076 0.400996 0.433259 0.414852 0.283847 0.386054 0.403151 
0.185605 0.172911 0.495672 0.414391 0.398653 0.35344 0.294531 0.436295 0.471546 
0.501655 0.419898 0.49511 0.377147 0.323806 0.396205 0.236066 0.260242 0.291173 
0.384921 0.198002 0.359096 0.241977 0.38983 0.379058 0.188445 0.484561 0.401874 
0.133236 0.264237 0.349685 0.466093 0.488656 0.320373 0.403208 0.458578 0.406783 
0.368795 0.38271 0.374105 0.309624 0.24291 0.14408 0.194648 0.409459 0.507822 
0.441982 0.216979 0.422937 0.432608 0.362597 0.244908 0.36916 0.562678 0.425721 
0.241625 0.433629 0.277712 0.425669 0.395402 0.434327 0.5019 0.425344 0.393824 
0.276422 0.184255 0.273598 0.401629 0.265959 0.408821 0.357506 0.411442 0.661671 
0.381835 0.426218 0.335843 0.356789 0.389163 0.366544 0.289529 0.471184 0.494944 
0.387252 0.425586 0.251648 0.480328 0.440073 0.426989 0.488131 0.406635 0.414247 
0.510858 0.464783 0.316352 0.418123 0.415599 0.402177 0.31662 0.421027 0.348039 
0.256955 0.362629 0.612936 0.249557 0.42106 0.390011 0.493883 0.478837 0.309642 
0.503156 0.379609 0.402034 0.206553 0.412338 0.394363 0.37879 0.363494 0.432117 
0.415521 0.22721 0.416805 0.200688 0.227641 0.406687 0.425089 0.416486 0.436284 
0.563295 0.45774 0.451379 0.450482 0.392025 0.48233 0.36127 0.298832 0.388635 
0.3639 0.403867 0.401145 0.402906 0.493431 0.419407 0.436814 0.557424 0.463123 
0.518845 0.395173 0.418545 0.506633 0.283033 0.450182 0.44337 0.394019 0.383214 
0.375544 0.414636 0.385559 0.421892 0.477822 0.431869 0.490736 0.427217 0.39232 
0.440791 0.413248 0.425011 0.41087 0.373148 0.190856 0.431556 0.352019 0.419563 
0.396356 0.425339 0.414504 0.45821 0.488894 0.43344 0.50858 0.425299 0.431577 
0.394061 0.411464 0.423241 0.246384 0.218966 0.306892 0.390843 0.392056 0.424329 
0.44187 0.419723 0.431184 0.423838 0.407507 0.426107 0.411542 0.417565 0.548144 
0.505492 0.596376 0.447402 0.247402 0.161722 0.282037 0.320494 0.37081 0.49745 
0.167072 0.361781 0.443321 0.468208 0.409475 0.409059 0.424385 0.428328 0.475999 
0.32945 0.377819 0.45821 0.448226 0.390327 0.406321 0.32101 0.363918 0.392018 
0.588913 0.415213 0.402573 0.37641 0.581363 0.426933 0.48963 0.496685 0.41766 
0.407289 0.373778 0.446442 0.379191 0.365219 0.393833 0.314931 0.383878 0.354841 
0.237576 0.486854 0.488652 0.497545 0.256612 0.263485 0.504016 0.391399 0.250408 
0.5046 0.493286 0.481769 0.425443 0.426301 0.540041 0.388869 0.412526 0.540023 
0.357511 0.396345 0.507319 0.460001 0.501197 0.501028 0.483338 0.371428 0.401749 
0.58995 0.463435 0.406753 0.479323 0.371442 0.388874 0.37764 0.430305 0.461002 
0.280085 0.466151 0.316901 0.479715 0.399919 0.402879 0.404197 0.472452 0.460035 
0.276843 0.410139 0.438292 0.38136 0.395377 0.414861 0.422204 0.586399 0.381259 
0.474728 0.408451 0.463083 0.429334 0.409107 0.197251 0.218096 0.374942 0.367282 
0.391576 0.362616 0.485597 0.442533 0.507364 0.430105 0.204892 0.235323 0.412286 
0.493568 0.244389 0.184152 0.368884 0.465547 0.477802 0.360507 0.595458 0.476986 
0.493778 0.412208 0.454897 0.478181 0.506973 0.508248 0.499509 0.412375 0.436402 
0.238532 0.195379 0.221993 0.190819 0.432008 0.151095 0.323533 0.228028 0.404321 
0.538232 0.379847 0.462849 0.435183 0.381564 0.565922 0.481656 0.387694 0.368071 
0.508596 0.50515 0.502935 0.468176 0.537033 0.524033 0.486368 0.372123 0.454301 
0.437573 0.50695 0.501445 0.407587 0.388936 0.494146 0.400952 0.469777 0.490689 
0.46902 0.357516 0.384215 0.315744 0.370953 0.414765 0.216019 0.213923 0.41743 
0.455575 0.405026 0.475543 0.384964 0.416189 0.472602 0.250008 0.348102 0.388288 
0.435753 0.467889 0.396366 0.415161 0.435043 0.482459 0.417435 0.244597 0.407253 
0.23832 0.470756 0.363861 0.320838 0.419922 0.44021 0.41786 0.433523 0.422246 
0.423508 0.500819 0.369214 0.380594 0.587433 0.397717 0.379631 0.505697 0.493809 
0.438835 0.454954 0.433219 0.557683 0.20237 0.388076 0.41344 0.412652 0.412696 
0.343793 0.480021 0.499786 0.489751 0.434068 0.426741 0.423213 0.410377 0.376053 
0.360433 0.392846 0.44536 0.423006 0.439689 0.431999 0.479654 0.207032 0.140678 
0.430485 0.242407 0.486931 0.412423 0.364989 0.426247 0.494525 0.495535 0.48433 
0.429888 0.45458 0.426255 0.416814 0.462819 0.420805 0.453225 0.449078 0.377295 
0.432577 0.457468 0.196931 0.173556 0.37764 0.314575 0.375276 0.385966 0.369363 
0.426655 0.455101 0.383786 0.427825 0.504899 0.494308 0.509489 0.508971 0.402669 
0.424003 0.428856 0.427679 0.405082 0.413718 0.372298 0.46294 0.405338 0.491616 
0.447814 0.46873 0.400669 0.405003 0.408546 0.42493 0.504197 0.438473 0.420217 
0.494701 0.493517 0.300086 0.201498 0.217203 0.420715 0.398865 0.343893 0.39381 
0.463169 0.492113 0.377571 0.427376 0.417904 0.411834 0.428753 0.39882 0.508568 
0.508817 0.396781 0.409133 0.398494 0.414875 0.421381 0.277411 0.411253 0.365195 
0.374196 0.360771 0.409183 0.37985 0.364636 0.438267 0.409195 0.36637 0.445653 
0.505594 0.494715 0.500334 0.453818 0.387539 0.368123 0.237626 0.270918 0.13547 
0.284546 0.225551 0.408077 0.40911 0.445139 0.413702 0.432437 0.330912 0.278722 
0.599257 0.449904 0.268266 0.442218 0.298166 0.422848 0.440517 0.427033 0.384263 
0.269056 0.305645 0.303225 0.42656 0.420976 0.429152 0.391047 0.4202 0.672041 
0.222298 0.475912 0.430422 0.427195 0.483046 0.375794 0.370676 0.376208 0.496647 
0.392863 0.416662 0.427692 0.42142 0.421186 0.392359 0.200305 0.324103 0.396635 
0.474795 0.360601 0.367715 0.302664 0.29514 0.389998 0.404678 0.40206 0.414537 
0.616033 0.222047 0.501854 0.278506 0.47981 0.401085 0.461192 0.235424 0.262143 
0.223052 0.50042 0.260148 0.437858 0.434203 0.460829 0.502241 0.387654 0.551618 
0.546769 0.218341 0.620707 0.47462 0.383963 0.42304 0.420585 0.539153 0.450311 
0.427232 0.219304 0.206006 0.281443 0.219774 0.415479 0.410244 0.407571 0.298098 
0.244851 0.210143 0.432552 0.406713 0.415714 0.421739 0.420724 0.483157 0.434367 
0.456476 0.379195 0.23022 0.397228 0.272218 0.487644 0.341933 0.321015 0.576994 
0.590923 0.553849 0.560892 0.432345 0.319355 0.428783 0.354046 0.389897 0.271334 
0.395015 0.441493 0.16193 0.393227 0.403969 0.416189 0.401218 0.399279 0.425461 
0.504466 0.401844 0.4132 0.499254 0.407296 0.445446 0.359014 0.586902 0.40509 
0.499728 0.386845 0.394256 0.414764 0.376562 0.427491 0.439424 0.426091 0.415124 
0.480551 0.491635 0.461134 0.390842 0.215068 0.274801 0.305583 0.309785 0.234974 
0.393181 0.380703 0.391326 0.387545 0.487274 0.399455 0.66036 0.372839 0.364295 
0.345725 0.267702 0.338966 0.149985 0.19789 0.196528 0.244371 0.334114 0.222834 
0.163384 0.391933 0.372829 0.285783 0.391916 0.217615 0.40201 0.26294 0.357411 
0.562046 0.159464 0.169135 0.212084 0.297733 0.279004 0.387467 0.229822 0.443283 
0.40632 0.498781 0.426808 0.476284 0.699427 0.531991 0.258881 0.501225 0.417737 
0.288727 0.435084 0.283858 0.439081 0.287341 0.162153 0.454874 0.475595 0.338372 
0.485875 0.394346 0.421398 0.406708 0.403768 0.37885 0.378701 0.261126 0.301863 
0.440302 0.301526 0.402093 0.401879 0.6437 0.388267 0.483117 0.276224 0.347816 
0.401541 0.426089 0.474163 0.446002 0.568374 0.367989 0.698159 0.69471 0.478924 
0.444473 0.39535 0.418898 0.383695 0.440472 0.460781 0.472271 0.410796 0.465233 
0.413623 0.421528 0.42215 0.367688 0.452072 0.409174 0.41239 0.440705 0.369586 
0.439155 0.365046 0.457873 0.389938 0.366634 0.613518 0.419722 0.439382 0.439342 
0.431955 0.424372 0.364085 0.462643 0.426931 0.509532 0.502574 0.447664 0.424245 
0.419277 0.42508 0.384363 0.21596 0.261112 0.417526 0.434646 0.524539 0.397763 
0.430646 0.417579 0.419472 0.400241 0.232732 0.215346 0.292717 0.38487 0.363696 
0.485196 0.446756 0.432124 0.46417 0.474413 0.584111 0.483266 0.413731 0.393523 
0.477881 0.423647 0.422811 0.422414 0.434281 0.428345 0.443946 0.427463 0.427046 
0.426299 0.413973 0.419892 0.419835 0.226418 0.190111 0.39141 0.355978 0.241742 
0.432281 0.363251 0.567706 0.553414 0.401983 0.404392 0.369775 0.360269 0.321253 
0.3783 0.175438 0.408137 0.375291 0.376899 0.205568 0.388726 0.308997 0.303089 
0.281453 0.408462 0.435628 0.397565 0.170974 0.414452 0.401823 0.337812 0.409535 
0.3884 0.411781 0.436502 0.439526 0.42601 0.379985 0.390561 0.484296 0.461154 
0.387533 0.362068 0.367507 0.384112 0.338551 0.359357 0.398705 0.440434 0.426462 
0.41079 0.398766 0.440257 0.359134 0.503775 0.505352 0.569205 0.532571 0.547704 
0.654673 0.25171 0.418254 0.2177 0.413986 0.426954 0.421803 0.350546 0.385975 
0.43387 0.405065 0.424648 0.429253 0.640864 0.338135 0.411002 0.413313 0.432683 
0.369874 0.3859 0.423585 0.45387 0.441311 0.606747 0.423745 0.401503 0.286941 
0.395071 0.405219 0.473904 0.452861 0.49901 0.426491 0.498842 0.425717 0.331469 
0.440214 0.411283 0.421794 0.441603 0.431331 0.403201 0.406751 0.497712 0.488809 
0.493892 0.508834 0.552811 0.641133 0.389376 0.423688 0.402546 0.147097 0.401058 
0.364597 0.436899 0.437327 0.449478 0.426305 0.556052 0.428917 0.43665 0.423261 
0.547506 0.462901 0.477757 0.417653 0.250802 0.382178 0.219812 0.357731 0.388917 
0.500951 0.500499 0.509603 0.501348 0.509745 0.265708 0.453173 0.436239 0.515408 
0.52894 0.247049 0.251757 0.210303 0.290616 0.448066 0.492021 0.495868 0.357207 
0.500153 0.40921 0.64865 0.422716 0.495849 0.501745 0.504546 0.501667 0.198472 
0.253615 0.420751 0.216379 0.384739 0.392876 0.399237 0.436212 0.372227 0.397753 
0.391913 0.403931 0.550038 0.400755 0.422219 0.427443 0.430451 0.460277 0.420451 
0.254423 0.447912 0.489599 0.404007 0.412372 0.437194 0.424375 0.419264 0.271303 
0.242531 0.190839 0.388043 0.399361 0.187797 0.170596 0.174601 0.375085 0.369377 
0.363129 0.291152 0.200463 0.424042 0.236462 0.479708 0.348103 0.231419 0.368982 
0.380599 0.367783 0.372822 0.389977 0.366724 0.364748 0.314409 0.372798 0.209816 
0.369841 0.230919 0.400713 0.480818 0.614042 0.34533 0.448751 0.426388 0.457986 
0.5256 0.405787 0.421689 0.422344 0.354532 0.359992 0.467098 0.420799 0.388328 
0.636725 0.352603 0.600817 0.390907 0.401762 0.426222 0.425233 0.470302 0.37264 
0.397414 0.216371 0.205051 0.417542 0.479571 0.499313 0.490297 0.317493 0.432433 
0.468886 0.299585 0.404525 0.579264 0.46151 0.582819 0.501701 0.262982 0.33427 
0.15667 0.417124 0.406983 0.372254 0.396217 0.416728 0.446282 0.419498 0.391682 
0.453185 0.451138 0.499545 0.437272 0.392584 0.360343 0.437668 0.425496 0.390283 
0.408434 0.359964 0.444494 0.36654 0.210949 0.339251 0.221344 0.438535 0.464642 
0.376189 0.472309 0.256431 0.478064 0.212199 0.215709 0.483205 0.327842 0.480451 
0.369319 0.3591 0.398175 0.430469 0.401901 0.415226 0.419263 0.488526 0.392402 
0.391214 0.565761 0.520138 0.501499 0.456575 0.416294 0.53911 0.56804 0.5336 
0.178489 0.265486 0.373427 0.401454 0.420044 0.367071 0.397178 0.519511 0.438844 
0.368705 0.384288 0.386072 0.419209 0.223113 0.429101 0.428836 0.43718 0.460273 
0.378302 0.411991 0.53986 0.443835 0.373407 0.36058 0.266518 0.197001 0.415585 
0.391551 0.465487 0.498497 0.486046 0.469683 0.424034 0.428967 0.42123 0.435264 
0.477796 0.48479 0.245335 0.363486 0.339149 0.392313 0.580066 0.543551 0.458292 
0.231578 0.452019 0.421628 0.272751 0.45389 0.373558 0.37754 0.320705 0.442541 
0.381442 0.37584 0.366425 0.374851 0.442546 0.462467 0.37066 0.371157 0.377386 
0.39683 0.413713 0.427357 0.458947 0.420897 0.424782 0.384848 0.33213 0.295281 
0.271826 0.210671 0.18691 0.305051 0.460758 0.367063 0.357151 0.389526 0.39871 
0.365387 0.60167 0.621041 0.46578 0.440889 0.364337 0.421239 0.367345 0.382449 
0.463342 0.262231 0.434224 0.403799 0.305396 0.408339 0.307376 0.375375 0.215071 
0.231833 0.185898 0.426193 0.405657 0.367062 0.4562 0.409858 0.381657 0.300686 
0.42911 0.417648 0.538539 0.37872 0.436296 0.426859 0.427712 0.505067 0.499437 
0.502073 0.426762 0.424345 0.431613 0.466125 0.437407 0.423349 0.438382 0.426459 
0.426104 0.514454 0.632787 0.435958 0.410866 0.36116 0.383314 0.410307 0.48604 
0.483886 0.417081 0.463332 0.421691 0.421745 0.301017 0.265102 0.258724 0.254916 
0.510347 0.425479 0.431075 0.397408 0.363464 0.360798 0.466403 0.396122 0.371592 
0.406831 0.43004 0.375701 0.391718 0.283381 0.228516 0.401323 0.462904 0.298215 
0.377382 0.582152 0.286933 0.481037 0.503457 0.484348 0.363388 0.403966 0.391459 
0.396027 0.383628 0.480253 0.445742 0.425047 0.221819 0.218904 0.444838 0.444652 
0.424237 0.466025 0.375404 0.434601 0.425399 0.40531 0.425292 0.40262 0.412744 
0.388696 0.463049 0.472813 0.359959 0.361827 0.190981 0.149264 0.363569 0.18463 
0.422651 0.424064 0.442452 0.413943 0.452106 0.424563 0.517308 0.583885 0.344365 
0.364247 0.395207 0.289922 0.427082 0.497203 0.457556 0.413251 0.390197 0.414464 
0.296401 0.20949 0.178584 0.33088 0.208528 0.460462 0.291721 0.38068 0.371378 
0.395827 0.429353 0.399206 0.415892 0.361923 0.383226 0.444893 0.424968 0.315394 
0.286815 0.335539 0.226848 0.331068 0.253586 0.40527 0.401181 0.46167 0.400239 
0.407112 0.396703 0.386023 0.448097 0.363033 0.385261 0.578807 0.616831 0.602114 
0.531438 0.480622 0.37954 0.360453 0.414677 0.392423 0.465992 0.364686 0.360274 
0.294697 0.327751 0.371406 0.442377 0.382866 0.431714 0.488202 0.487588 0.508165 
0.501672 0.402158 0.253827 0.367127 0.43321 0.374959 0.417802 0.448981 0.446086 
0.448042 0.408609 0.460188 0.465846 0.477261 0.162417 0.347464 0.425121 0.41892 
0.560777 0.365672 0.375438 0.592777 0.461928 0.680741 0.626973 0.569232 0.337161 
0.439831 0.394782 0.37069 0.531264 0.546312 0.35808 0.295363 0.32006 0.321457 
0.16318 0.504444 0.48763 0.507848 0.435941 0.481714 0.489834 0.499348 0.371308 
0.58192 0.492398 0.419402 0.402149 0.37967 0.41901 0.43016 0.460562 0.435124 
0.503578 0.50283 0.244423 0.222552 0.2821 0.383942 0.206004 0.278122 0.418606 
0.409024 0.40944 0.41695 0.313713 0.293791 0.207887 0.427572 0.2293 0.355489 
0.365054 0.303966 0.428149 0.386461 0.436916 0.357195 0.481683 0.426834 0.42397 
0.476841 0.423484 0.585789 0.497272 0.428139 0.322024 0.211316 0.36896 0.487001 
0.174872 0.207047 0.359493 0.356876 0.405092 0.477716 0.432219 0.426479 0.43509 
0.420557 0.51326 0.449102 0.372261 0.623814 0.281945 0.560226 0.370726 0.373211 
0.359632 0.36726 0.580549 0.374588 0.390684 0.400763 0.462932 0.467167 0.497319 
0.489099 0.476897 0.375975 0.485363 0.567924 0.477024 0.392579 0.444562 0.407733 
0.322372 0.299048 0.352486 0.395279 0.297799 0.374144 0.421984 0.401637 0.385457 
0.545388 0.543716 0.43093 0.426925 0.427047 0.410456 0.458612 0.380222 0.383059 
0.327261 0.240409 0.273263 0.227585 0.381764 0.393421 0.492927 0.36878 0.377956 
0.451835 0.390651 0.416494 0.205171 0.412659 0.457913 0.426507 0.426877 0.443971 
0.426347 0.422861 0.293529 0.276555 0.425524 0.452701 0.426529 0.448402 0.422424 
0.425981 0.188314 0.220369 0.432844 0.58006 0.4941 0.457846 0.386828 0.213455 
0.400768 0.207687 0.215231 0.216549 0.21271 0.432553 0.425978 0.43668 0.423617 
0.376045 0.332586 0.406116 0.384323 0.364388 0.385409 0.38247 0.495492 0.40075 
0.36871 0.389566 0.446451 0.41315 0.44241 0.427122 0.419538 0.455442 0.52325 
0.467842 0.264892 0.296407 0.312964 0.25294 0.400748 0.463046 0.414334 0.224909 
0.255394 0.442108 0.393045 0.453021 0.369839 0.409582 0.409658 0.426411 0.45088 
0.481814 0.419709 0.42428 0.385825 0.432009 0.420567 0.366301 0.406618 0.415167 
0.408516 0.465667 0.426399 0.421526 0.1844 0.197226 0.386107 0.193175 0.469572 
0.41988 0.483988 0.361367 0.420068 0.396236 0.423828 0.43352 0.390253 0.181445 
0.230947 0.327495 0.371618 0.37436 0.379884 0.398983 0.422155 0.420754 0.361773 
0.451255 0.39037 0.364065 0.42315 0.560316 0.385248 0.405657 0.221458 0.431861 
0.479409 0.409587 0.450312 0.37649 0.266261 0.313648 0.479158 0.27818 0.25466 
0.343492 0.48984 0.459059 0.460733 0.355198 0.52476 0.535096 0.454727 0.455904 
0.464988 0.40935 0.447787 0.422741 0.406043 0.456849 0.467269 0.415094 0.573946 
0.627858 0.596689 0.590524 0.403826 0.448346 0.335284 0.1933 0.191934 0.177468 
0.283011 0.229903 0.418784 0.398525 0.3869 0.373018 0.493345 0.381102 0.445447 
0.412931 0.58028 0.369403 0.385987 0.462616 0.394141 0.412729 0.397741 0.446974 
0.427059 0.424198 0.419771 0.352671 0.417726 0.376959 0.255034 0.287306 0.495688 
0.502252 0.507338 0.422912 0.46169 0.442645 0.450332 0.626874 0.480197 0.63595 
0.510734 0.385833 0.46914 0.461787 0.441442 0.365873 0.439902 0.190062 0.225522 
0.164521 0.415246 0.496837 0.483147 0.496079 0.499543 0.611925 0.388597 0.453377 
0.466739 0.413716 0.373441 0.387372 0.426708 0.424398 0.440462 0.464036 0.33189 
0.200404 0.378304 0.321386 0.475327 0.534906 0.400358 0.422266 0.434696 0.423561 
0.44383 0.374465 0.383309 0.202309 0.457686 0.42433 0.431532 0.443657 0.380556 
0.376014 0.387467 0.375626 0.425942 0.429188 0.421332 0.410984 0.425044 0.271483 
0.284724 0.395925 0.535638 0.368 0.371383 0.385757 0.406485 0.484113 0.559955 
0.404379 0.365428 0.410904 0.40162 0.498904 0.480921 0.509545 0.495102 0.503117 
0.277257 0.490818 0.146014 0.177511 0.497369 0.492773 0.497145 0.491781 0.513578 
0.592794 0.637064 0.381113 0.377853 0.373858 0.378358 0.42608 0.463794 0.441065 
0.450998 0.378282 0.438418 0.395972 0.402001 0.406174 0.385166 0.392422 0.38756 
0.293443 0.525222 0.470472 0.400631 0.424734 0.434675 0.434811 0.45925 0.458512 
0.427256 0.469338 0.41848 0.413544 0.426493 0.190112 0.23298 0.264674 0.40654 
0.417484 0.461464 0.437322 0.220666 0.250685 0.194778 0.46529 0.405123 0.481563 
0.607345 0.562502 0.596322 0.366626 0.427657 0.405994 0.393011 0.448606 0.373348 
0.351141 0.472883 0.308862 0.371334 0.327301 0.172618 0.426295 0.487376 0.488662 
0.424404 0.566263 0.427298 0.418946 0.423656 0.555929 0.363814 0.499315 0.366322 
0.345231 0.426077 0.426805 0.428898 0.466627 0.388564 0.453848 0.397165 0.365051 
0.360986 0.344557 0.44495 0.386008 0.368946 0.360293 0.356817 0.562861 0.508211 
0.617646 0.432328 0.387035 0.44668 0.468085 0.514424 0.451525 0.420065 0.425504 
0.418188 0.420684 0.394954 0.394056 0.418788 0.406251 0.490409 0.194616 0.369842 
0.362024 0.18075 0.292566 0.299118 0.214706 0.321183 0.474548 0.444733 0.458595 
0.452045 0.495881 0.473801 0.497149 0.493347 0.39053 0.428606 0.452255 0.499682 
0.509861 0.506531 0.505764 0.484385 0.3654 0.382479 0.404213 0.420319 0.542036 
0.366536 0.556871 0.496873 0.483507 0.452401 0.499275 0.427212 0.541091 0.57008 
0.409117 0.39619 0.40436 0.3657 0.386091 0.375425 0.39801 0.420019 0.372876 
0.376187 0.421299 0.425056 0.42029 0.362833 0.406111 0.389406 0.423622 0.429233 
0.239647 0.532729 0.409614 0.512567 0.504712 0.488162 0.436091 0.40145 0.451672 
0.589025 0.614612 0.389752 0.458451 0.471667 0.510248 0.507779 0.501581 0.505476 
0.379516 0.359308 0.4518 0.491015 0.48821 0.473208 0.41017 0.42267 0.452394 
0.45458 0.422936 0.460026 0.451865 0.448621 0.4088 0.27005 0.422819 0.442802 
0.492473 0.373732 0.419818 0.471476 0.422902 0.371034 0.412967 0.434973 0.410228 
0.358284 0.417261 0.413152 0.418593 0.179931 0.438646 0.433731 0.413081 0.402804 
0.404248 0.506236 0.504055 0.459931 0.459266 0.431262 0.429979 0.171472 0.139323 
0.427516 0.418142 0.641407 0.274034 0.326946 0.257441 0.320541 0.274682 0.384729 
0.24369 0.236266 0.323102 0.259115 0.400719 0.41764 0.499333 0.41763 0.493514 
0.500253 0.595821 0.472578 0.538041 0.532292 0.554772 0.529421 0.382948 0.465016 
0.358755 0.378826 0.387435 0.429955 0.368325 0.468339 0.462405 0.411465 0.448257 
0.484453 0.471776 0.430852 0.482916 0.311259 0.338822 0.261573 0.237138 0.176805 
0.212505 0.15083 0.171655 0.538646 0.385935 0.491535 0.569137 0.548579 0.495733 
0.423347 0.421859 0.431177 0.407057 0.384778 0.37049 0.408717 0.407944 0.150298 
0.500876 0.45831 0.305505 0.222821 0.362894 0.285398 0.362437 0.387618 0.463826 
0.416871 0.360726 0.432932 0.46321 0.42626 0.425941 0.458178 0.328611 0.545374 
0.280125 0.390984 0.375753 0.400707 0.400844 0.374842 0.37591 0.399802 0.454559 
0.378126 0.301502 0.557037 0.506841 0.508077 0.465916 0.410624 0.532023 0.523518 
0.418673 0.407906 0.427124 0.417258 0.48816 0.42727 0.438577 0.311343 0.360539 
0.468696 0.54353 0.520457 0.31566 0.181687 0.192404 0.407396 0.390906 0.381427 
0.439578 0.538276 0.537951 0.392552 0.427803 0.411964 0.425346 0.556584 0.49532 
0.348878 0.41821 0.502542 0.47835 0.424914 0.41052 0.385596 0.486486 0.499534 
0.499015 0.489968 0.424975 0.42296 0.420908 0.428154 0.442244 0.324976 0.233766 
0.319846 0.365513 0.469568 0.416266 0.486745 0.21008 0.363115 0.20481 0.357246 
0.356627 0.357298 0.406218 0.366227 0.416235 0.420827 0.42694 0.487039 0.424012 
0.445332 0.42753 0.434707 0.426162 0.44839 0.46346 0.493078 0.484724 0.491503 
0.451313 0.426271 0.389859 0.391923 0.465536 0.45143 0.412715 0.682498 0.403711 
0.605802 0.450722 0.478517 0.466449 0.36199 0.372303 0.364952 0.338132 0.442034 
0.529072 0.30923 0.354134 0.550505 0.372926 0.411738 0.49685 0.561014 0.410659 
0.664013 0.209512 0.22873 0.304432 0.401809 0.294437 0.28699 0.421487 0.38874 
0.368388 0.364615 0.362504 0.471083 0.500436 0.478524 0.48656 0.506304 0.485285 
0.507291 0.412901 0.372813 0.51205 0.331905 0.399868 0.346229 0.465228 0.459626 
0.453273 0.416403 0.387107 0.375669 0.38797 0.357493 0.364929 0.368502 0.410439 
0.402434 0.389788 0.44482 0.422956 0.419494 0.419666 0.450987 0.456939 0.376147 
0.409036 0.421973 0.423108 0.408378 0.365886 0.385481 0.347942 0.363407 0.280343 
0.510539 0.388142 0.35642 0.577667 0.54397 0.385802 0.426751 0.367751 0.400612 
0.427895 0.417506 0.403181 0.427903 0.384016 0.363686 0.455181 0.47116 0.395517 
0.423317 0.374902 0.43157 0.364938 0.358042 0.307263 0.388798 0.386813 0.21747 
0.377276 0.371022 0.348917 0.416281 0.435609 0.41875 0.433074 0.402622 0.356451 
0.396217 0.395837 0.480832 0.478926 0.491499 0.490402 0.457802 0.461551 0.401867 
0.360577 0.248301 0.443983 0.424692 0.374513 0.499428 0.499769 0.267484 0.352474 
0.369125 0.387489 0.377323 0.646388 0.572403 0.617577 0.498624 0.371333 0.365685 
0.371239 0.408217 0.408175 0.393591 0.366436 0.480003 0.445646 0.426083 0.408576 
0.417111 0.417225 0.419495 0.490394 0.473381 0.50116 0.480488 0.309658 0.475826 
0.471612 0.480613 0.517683 0.379853 0.439102 0.592898 0.625858 0.61891 0.560963 
0.265463 0.388665 0.291075 0.291494 0.582188 0.264575 0.219593 0.236379 0.241494 
0.42115 0.426627 0.429509 0.425995 0.432413 0.360392 0.456297 0.418635 0.455363 
0.478785 0.424605 0.472666 0.423109 0.48366 0.504606 0.396981 0.53571 0.415573 
0.377163 0.376013 0.362652 0.505082 0.504761 0.507636 0.508606 0.507049 0.42057 
0.415297 0.423685 0.424211 0.4097 0.506091 0.505969 0.49707 0.505646 0.432344 
0.507665 0.151314 0.182671 0.240915 0.167905 0.475955 0.489134 0.439151 0.4805 
0.482397 0.440834 0.381161 0.446784 0.418193 0.379212 0.440248 0.285211 0.24223 
0.625588 0.551455 0.537281 0.602315 0.430638 0.501831 0.539236 0.529275 0.172537 
0.370449 0.318101 0.390624 0.416506 0.232699 0.382631 0.292707 0.281624 0.426684 
0.414012 0.464016 0.398833 0.53054 0.510991 0.416682 0.496401 0.481673 0.491008 
0.25192 0.232854 0.208734 0.215673 0.188583 0.195474 0.457937 0.41177 0.420343 
0.467844 0.426322 0.469427 0.395777 0.36232 0.339419 0.491924 0.487188 0.500267 
0.568979 0.40886 0.351694 0.28317 0.246393 0.407859 0.34958 0.501539 0.499725 
0.436033 0.410474 0.376465 0.362669 0.52017 0.372832 0.366137 0.260327 0.201071 
0.186607 0.233853 0.403373 0.382275 0.366308 0.384568 0.265844 0.258746 0.373057 
0.315751 0.493 0.476007 0.439273 0.483656 0.48779 0.422821 0.367376 0.430804 
0.238556 0.550982 0.528486 0.472699 0.188987 0.395531 0.397018 0.43095 0.413735 
0.43233 0.346524 0.424217 0.406951 0.402665 0.413081 0.501628 0.409574 0.447015 
0.564553 0.457141 0.425949 0.424254 0.428092 0.428073 0.409591 0.504363 0.508431 
0.506959 0.504575 0.425939 0.167445 0.235875 0.275141 0.209967 0.401312 0.398231 
0.407278 0.406874 0.430805 0.419677 0.420349 0.438457 0.44344 0.455169 0.363325 
0.368355 0.36923 0.377604 0.293391 0.519188 0.531321 0.386264 0.248862 0.18358 
0.177191 0.177332 0.169314 0.210965 0.422887 0.377534 0.399729 0.38344 0.272248 
0.427759 0.416501 0.425696 0.500972 0.489153 0.465069 0.495603 0.498429 0.509813 
0.422757 0.468217 0.50182 0.504715 0.498467 0.49977 0.465132 0.380505 0.423388 
0.444828 0.429686 0.368048 0.40438 0.406534 0.412798 0.181253 0.170678 0.132517 
0.143418 0.453121 0.561622 0.551121 0.28985 0.330697 0.228072 0.250645 0.268136 
0.379075 0.336476 0.269416 0.372675 0.449538 0.500797 0.503632 0.474804 0.450013 
0.578279 0.59169 0.587104 0.600237 0.466631 0.589392 0.414483 0.422116 0.390667 
0.28229 0.488123 0.500419 0.456694 0.508485 0.562696 0.445254 0.624912 0.425749 
0.520261 0.585199 0.59047 0.582312 0.437109 0.592279 0.424043 0.388233 0.381386 
0.376376 0.376495 0.382037 0.356532 0.182143 0.181715 0.14887 0.458768 0.474764 
0.426778 0.413811 0.227643 0.442634 0.506406 0.507077 0.503649 0.502845 0.507863 
0.387537 0.391539 0.408338 0.439527 0.426804 0.4956 0.377198 0.39498 0.389505 
0.380864 0.436867 0.447792 0.460116 0.43724 0.431129 0.404942 0.624533 0.607638 
0.45231 0.385529 0.44321 0.435794 0.554497 0.595282 0.383126 0.402078 0.473882 
0.39465 0.390417 0.418999 0.419243 0.408733 0.388184 0.260104 0.286907 0.555005 
0.429102 0.361357 0.502422 0.474804 0.404703 0.366435 0.369171 0.371755 0.37075 
0.362375 0.424997 0.488271 0.493607 0.486844 0.452163 0.417921 0.303547 0.357046 
0.397215 0.58778 0.554914 0.352514 0.363519 0.36188 0.459922 0.528438 0.381274 
0.317389 0.373442 0.406851 0.436665 0.403307 0.435215 0.434758 0.451883 0.424328 
0.367889 0.432471 0.595917 0.613193 0.561672 0.437446 0.4243 0.404319 0.523992 
0.403701 0.611861 0.300828 0.363836 0.327667 0.333135 0.174096 0.173258 0.208188 
0.470789 0.355631 0.581072 0.501062 0.615533 0.443316 0.466237 0.440117 0.426312 
0.415527 0.381923 0.404698 0.410583 0.468706 0.492563 0.483557 0.484067 0.479276 
0.505147 0.500779 0.507105 0.494718 0.47133 0.491456 0.501204 0.361534 0.502179 
0.430948 0.373492 0.393213 0.42021 0.439388 0.420434 0.44091 0.438019 0.435303 
0.433367 0.436849 0.474785 0.48662 0.490405 0.504954 0.612398 0.585494 0.616076 
0.544325 0.516417 0.332099 0.412404 0.266233 0.429165 0.454933 0.435295 0.428662 
0.397277 0.424883 0.432017 0.420591 0.422797 0.357948 0.417357 0.588864 0.446588 
0.383704 0.569448 0.539721 0.425841 0.429996 0.424746 0.42576 0.373631 0.371174 
0.391109 0.416965 0.320623 0.428434 0.471674 0.474005 0.489892 0.382179 0.390617 
0.382103 0.457552 0.392098 0.471996 0.461409 0.5021 0.49704 0.647829 0.4939 
0.570952 0.488142 0.414702 0.423548 0.427039 0.455178 0.404729 0.464796 0.461021 
0.256455 0.407029 0.508242 0.147081 0.176261 0.150773 0.199813 0.474898 0.513524 
0.606813 0.199564 0.238067 0.414937 0.356172 0.397677 0.36569 0.361693 0.43376 
0.431256 0.407699 0.38616 0.376806 0.366731 0.442701 0.529103 0.40655 0.448666 
0.532886 0.225399 0.289185 0.415938 0.260977 0.314497 0.450496 0.368957 0.373342 
0.360638 0.365039 0.437529 0.389303 0.423443 0.39906 0.360243 0.424739 0.396792 
0.405619 0.386129 0.369607 0.386705 0.428581 0.437832 0.493894 0.451958 0.419715 
0.422243 0.423829 0.438874 0.399371 0.582254 0.390393 0.456988 0.417202 0.487728 
0.448125 0.505844 0.497751 0.387864 0.379028 0.424977 0.396437 0.380603 0.480006 
0.506334 0.452882 0.488653 0.421641 0.480784 0.422181 0.439369 0.507615 0.439303 
0.392992 0.293183 0.384242 0.421946 0.437578 0.404961 0.364503 0.394277 0.483568 
0.499228 0.496013 0.495442 0.496767 0.402097 0.328728 0.40597 0.386131 0.296541 
0.156394 0.296333 0.424515 0.321406 0.340696 0.364914 0.19095 0.177705 0.394997 
0.370679 0.434287 0.409816 0.394587 0.403087 0.448257 0.410131 0.399027 0.325883 
0.302435 0.525084 0.580016 0.499509 0.495066 0.540589 0.36381 0.376741 0.366519 
0.370353 0.438716 0.455634 0.446147 0.425933 0.449431 0.628944 0.553072 0.418754 
0.389566 0.41966 0.397525 0.468013 0.483005 0.414374 0.47217 0.39159 0.359569 
0.37604 0.507624 0.508747 0.507569 0.357553 0.378152 0.372542 0.455213 0.417057 
0.406681 0.425718 0.401464 0.353988 0.379514 0.508113 0.37716 0.398925 0.465657 
0.381074 0.458922 0.376755 0.363551 0.414553 0.492796 0.489783 0.424567 0.39874 
0.426854 0.391335 0.385769 0.379876 0.298196 0.367542 0.391775 0.387601 0.356599 
0.367782 0.355528 0.387811 0.377043 0.766456 0.419317 0.516367 0.501803 0.226158 
0.270438 0.251815 0.524145 0.402704 0.368352 0.366008 0.393919 0.389355 0.448609 
0.494386 0.497283 0.425199 0.424109 0.422579 0.478727 0.467526 0.361006 0.424084 
0.386612 0.482088 0.472488 0.521836 0.572084 0.580118 0.362879 0.39165 0.393929 
0.392072 0.380315 0.466958 0.419959 0.415979 0.479527 0.450462 0.379098 0.390846 
0.339592 0.379497 0.268786 0.367619 0.396624 0.295711 0.416982 0.367806 0.38364 
0.462093 0.508584 0.436709 0.484173 0.502124 0.500631 0.474893 0.458834 0.446901 
0.423011 0.369305 0.372484 0.416687 0.475762 0.391994 0.283239 0.4573 0.45551 
0.43757 0.367351 0.370258 0.376607 0.376719 0.415999 0.466424 0.409935 0.44881 
0.438294 0.507256 0.556502 0.456031 0.474343 0.454692 0.427707 0.463117 0.442733 
0.411595 0.485521 0.453183 0.396041 0.409284 0.53877 0.372025 0.379367 0.402229 
0.37003 0.379878 0.423039 0.483342 0.397496 0.398012 0.615983 0.618944 0.333733 
0.42844 0.418116 0.424822 0.424198 0.418645 0.519217 0.614498 0.679713 0.481468 
0.463739 0.324263 0.211579 0.378727 0.369801 0.214801 0.38854 0.361809 0.469431 
0.456853 0.468918 0.42509 0.430679 0.425474 0.428343 0.493507 0.635901 0.590764 
0.587555 0.628266 0.606774 0.423478 0.46943 0.435916 0.488676 0.423297 0.383404 
0.417046 0.320017 0.488968 0.665299 0.344852 0.278545 0.227683 0.20326 0.264511 
0.240419 0.509015 0.50896 0.376078 0.183349 0.159767 0.167953 0.602235 0.589262 
0.686913 0.559869 0.56924 0.526687 0.38725 0.374428 0.36046 0.362861 0.534497 
0.568986 0.460932 0.386314 0.390715 0.386814 0.439641 0.499647 0.484595 0.485365 
0.498657 0.383915 0.401797 0.456251 0.468245 0.458813 0.45516 0.423588 0.425351 
0.423408 0.421766 0.596632 0.612808 0.565259 0.349925 0.434128 0.42378 0.421412 
0.507475 0.50668 0.507923 0.422069 0.624009 0.395025 0.362722 0.375985 0.392231 
0.378712 0.493976 0.44773 0.371977 0.370737 0.375817 0.435567 0.473777 0.448427 
0.498024 0.402734 0.443331 0.405074 0.387323 0.368566 0.463879 0.367234 0.35901 
0.446242 0.467818 0.462252 0.460016 0.473147 0.435728 0.476702 0.408134 0.418038 
0.393324 0.38161 0.418861 0.420934 0.419843 0.417895 0.21886 0.204189 0.200839 
0.549023 0.321828 0.2214 0.216227 0.362682 0.434822 0.409149 0.354738 0.447153 
0.505744 0.420306 0.426988 0.492905 0.42765 0.4218 0.475833 0.400901 0.4033 
0.379513 0.409481 0.418179 0.412789 0.379212 0.36257 0.160039 0.210037 0.408336 
0.410086 0.426746 0.227648 0.374568 0.2767 0.338606 0.455631 0.420996 0.422696 
0.373312 0.24758 0.280279 0.255341 0.374122 0.372362 0.387199 0.390073 0.497558 
0.424689 0.430714 0.457695 0.404932 0.437273 0.355276 0.403686 0.512438 0.495601 
0.525088 0.401396 0.379992 0.56011 0.565884 0.536031 0.308239 0.393649 0.384681 
0.294583 0.393769 0.307476 0.435814 0.37666 0.371992 0.464667 0.411711 0.452411 
0.4381 0.383885 0.358892 0.39088 0.479554 0.449623 0.451183 0.459875 0.423739 
0.44396 0.446233 0.468029 0.346946 0.602687 0.372808 0.379343 0.360484 0.366728 
0.435618 0.385461 0.468083 0.451489 0.311743 0.414086 0.468296 0.362819 0.506376 
0.506245 0.503796 0.504787 0.437539 0.440493 0.429358 0.396782 0.545724 0.589781 
0.453313 0.618043 0.368649 0.435031 0.369542 0.362081 0.337644 0.367939 0.376315 
0.380391 0.365471 0.48002 0.500181 0.495183 0.451236 0.460965 0.429413 0.426876 
0.391093 0.417038 0.316393 0.372242 0.398028 0.310469 0.397979 0.221067 0.363011 
0.226305 0.265684 0.258146 0.196742 0.187171 0.155231 0.172189 0.178816 0.422042 
0.363903 0.323914 0.257263 0.463855 0.439305 0.465067 0.467399 0.483171 0.490445 
0.484084 0.416799 0.486016 0.497199 0.620863 0.380156 0.229026 0.242336 0.369692 
0.417008 0.39247 0.505165 0.505208 0.506886 0.507394 0.47958 0.489986 0.505031 
0.424895 0.423068 0.544441 0.309712 0.516721 0.428228 0.427308 0.448679 0.380974 
0.344629 0.384066 0.426097 0.462516 0.478622 0.434352 0.396044 0.469249 0.425341 
0.428295 0.487041 0.554909 0.318392 0.399129 0.462258 0.495959 0.476928 0.413688 
0.40535 0.376434 0.360366 0.412838 0.543611 0.368153 0.438106 0.51804 0.40497 
0.374783 0.395062 0.406313 0.33749 0.306891 0.383796 0.322928 0.429653 0.423704 
0.266524 0.352639 0.365002 0.277406 0.374962 0.438985 0.39507 0.33487 0.549713 
0.407864 0.382066 0.527581 0.365911 0.395944 0.449163 0.440329 0.326206 0.305991 
0.303944 0.384634 0.451318 0.390501 0.496713 0.50719 0.499633 0.505319 0.501398 
0.502598 0.498786 0.503322 0.416025 0.405115 0.504831 0.416042 0.411889 0.420601 
0.412725 0.426776 0.409396 0.620265 0.50276 0.582339 0.413472 0.449614 0.447958 
0.380793 0.552661 0.337934 0.320755 0.484687 0.461337 0.43425 0.404123 0.429046 
0.420463 0.385267 0.364871 0.426498 0.425571 0.416331 0.420848 0.429542 0.452464 
0.418069 0.599114 0.512752 0.568129 0.58946 0.456952 0.481963 0.407154 0.480005 
0.394043 0.496123 0.494675 0.356517 0.467046 0.444829 0.451874 0.420644 0.412537 
0.48994 0.431062 0.307747 0.540661 0.363369 0.415527 0.429063 0.481014 0.258808 
0.345356 0.367595 0.197466 0.213851 0.428264 0.42246 0.395851 0.413246 0.165009 
0.164398 0.185118 0.497682 0.45052 0.496639 0.395591 0.424399 0.421044 0.408468 
0.416298 0.462788 0.420627 0.381229 0.481053 0.398735 0.367785 0.398099 0.412624 
0.362402 0.374009 0.283248 0.419277 0.400629 0.412528 0.409212 0.446798 0.437023 
0.44539 0.373369 0.53948 0.599727 0.433291 0.369714 0.484264 0.439181 0.372746 
0.428397 0.398164 0.401651 0.483179 0.400716 0.433859 0.534873 0.578594 0.198739 
0.18754 0.374426 0.450255 0.290707 0.384439 0.393892 0.432323 0.43803 0.453757 
0.360469 0.361861 0.362323 0.358731 0.359339 0.489662 0.452424 0.421294 0.412704 
0.431908 0.321886 0.374229 0.567833 0.537856 0.494214 0.430474 0.422356 0.424116 
0.49602 0.376709 0.437565 0.364247 0.239121 0.213778 0.488161 0.461822 0.478361 
0.455546 0.473341 0.479174 0.457626 0.43422 0.558066 0.371447 0.359408 0.408686 
0.40201 0.393251 0.381343 0.427324 0.424817 0.469693 0.464744 0.29187 0.428245 
0.622018 0.544251 0.522739 0.4251 0.418683 0.336504 0.426953 0.452304 0.372087 
0.370283 0.253598 0.370423 0.364271 0.337292 0.27059 0.231929 0.385612 0.240243 
0.377899 0.178202 0.189511 0.257044 0.237105 0.317294 0.175781 0.208204 0.381885 
0.390888 0.411276 0.381488 0.392921 0.360551 0.408577 0.357121 0.356988 0.371174 
0.363768 0.41137 0.395601 0.408933 0.380683 0.162672 0.167695 0.285563 0.19829 
0.178342 0.224042 0.397236 0.414057 0.415247 0.391383 0.245379 0.20694 0.249778 
0.230763 0.21246 0.226701 0.358397 0.242304 0.260802 0.369399 0.369012 0.360856 
0.368217 0.360323 0.43422 0.46125 0.438251 0.376942 0.358582 0.443251 0.378957 
0.373265 0.38673 0.380669 0.443727 0.460796 0.492171 0.618785 0.365093 0.367962 
0.466387 0.42601 0.440616 0.423763 0.437926 0.502492 0.50276 0.469727 0.491255 
0.482342 0.396716 0.368763 0.51346 0.578907 0.375136 0.390014 0.446797 0.411973 
0.466153 0.324468 0.21288 0.251085 0.246106 0.495729 0.484249 0.495003 0.470254 
0.446869 0.481573 0.424128 0.421602 0.143763 0.65316 0.361583 0.556943 0.483846 
0.482489 0.497969 0.44475 0.366318 0.424017 0.42634 0.427074 0.428439 0.42732 
0.428949 0.161249 0.137245 0.138739 0.469162 0.476193 0.481901 0.482594 0.517745 
0.481736 0.455595 0.491098 0.505911 0.489221 0.259781 0.389282 0.367105 0.233452 
0.461819 0.236893 0.375479 0.369905 0.385425 0.445522 0.448519 0.480586 0.434219 
0.599222 0.604842 0.567378 0.524473 0.497118 0.433119 0.43159 0.428247 0.461436 
0.500237 0.497345 0.421106 0.480347 0.195624 0.179797 0.208144 0.151374 0.214598 
0.145344 0.153471 0.187939 0.224539 0.24539 0.241583 0.38478 0.404058 0.394372 
0.400715 0.400999 0.430819 0.48352 0.477741 0.494763 0.386389 0.461813 0.430718 
0.438121 0.376684 0.444006 0.45605 0.469339 0.398976 0.444686 0.45425 0.425108 
0.375531 0.415522 0.388849 0.224834 0.220591 0.324643 0.277498 0.36959 0.344484 
0.417837 0.319531 0.372983 0.299072 0.492371 0.494432 0.4437 0.500185 0.483967 
0.508487 0.509459 0.366768 0.355836 0.376129 0.361892 0.446562 0.374507 0.368804 
0.415809 0.331907 0.406832 0.253448 0.32751 0.191811 0.187637 0.665404 0.392294 
0.419863 0.387753 0.446983 0.388216 0.408576 0.412474 0.416363 0.469553 0.381684 
0.321623 0.396451 0.41971 0.438762 0.429919 0.427226 0.395079 0.329599 0.370244 
0.301852 0.483414 0.504423 0.492107 0.490753 0.438166 0.370191 0.339063 0.489547 
0.372486 0.475051 0.391847 0.359535 0.364968 0.430921 0.182475 0.153012 0.225519 
0.249679 0.228913 0.192098 0.157733 0.177585 0.157633 0.211484 0.422559 0.419829 
0.208841 0.334729 0.274903 0.192959 0.25847 0.271374 0.492235 0.494321 0.484412 
0.489283 0.487552 0.472338 0.470991 0.450133 0.442536 0.42868 0.475563 0.392561 
0.462898 0.44572 0.373812 0.263643 0.381887 0.385805 0.459727 0.486518 0.235308 
0.488561 0.386662 0.397638 0.362952 0.385483 0.601985 0.599041 0.589861 0.611272 
0.411555 0.399201 0.505233 0.384378 0.356001 0.430233 0.389081 0.493441 0.454237 
0.451361 0.479931 0.480569 0.167537 0.158436 0.167603 0.309073 0.341415 0.321164 
0.345957 0.355732 0.370838 0.388685 0.382332 0.408675 0.26258 0.54307 0.644032 
0.593974 0.242797 0.1616 0.195221 0.211118 0.410132 0.395991 0.41768 0.401852 
0.445647 0.191678 0.142518 0.416772 0.175353 0.429174 0.386298 0.376935 0.477601 
0.523209 0.560714 0.550505 0.574946 0.369756 0.393604 0.460396 0.366141 0.400283 
0.362441 0.388486 0.373629 0.360512 0.364453 0.374766 0.37615 0.383193 0.389663 
0.380876 0.45791 0.533272 0.381818 0.375969 0.504066 0.503707 0.498521 0.499918 
0.506338 0.498895 0.310433 0.345394 0.326179 0.318952 0.484208 0.505336 0.401455 
0.362225 0.529495 0.540041 0.408249 0.467302 0.408355 0.473828 0.207521 0.197984 
0.197139 0.227377 0.184864 0.38059 0.397126 0.377459 0.409431 0.311075 0.374535 
0.366854 0.376308 0.394251 0.404129 0.553599 0.461779 0.426984 0.474587 0.440551 
0.431253 0.46413 0.484877 0.483347 0.478044 0.463021 0.389536 0.47758 0.464677 
0.275934 0.447257 0.377982 0.387941 0.264966 0.362716 0.534675 0.36512 0.374592 
0.382268 0.387164 0.386382 0.365945 0.396595 0.400957 0.415987 0.389227 0.351078 
0.330728 0.433083 0.426168 0.423511 0.42714 0.399679 0.375839 0.362466 0.373105 
0.358939 0.358762 0.360195 0.405654 0.464086 0.432263 0.453408 0.350864 0.386385 
0.22887 0.243258 0.394777 0.401291 0.397965 0.405346 0.365235 0.478256 0.364677 
0.36434 0.389446 0.161599 0.280749 0.375891 0.417729 0.43078 0.436637 0.373569 
0.364217 0.373128 0.200614 0.542733 0.569982 0.557996 0.445905 0.382955 0.389751 
0.36072 0.39416 0.369466 0.609943 0.479192 0.409452 0.511886 0.425568 0.51113 
0.435836 0.227542 0.199377 0.60899 0.551641 0.646553 0.378772 0.369363 0.37396 
0.455985 0.363278 0.417444 0.457182 0.526521 0.413062 0.491589 0.517982 0.381008 
0.602654 0.404379 0.3012 0.568895 0.467651 0.484605 0.405648 0.490521 0.429772 
0.421053 0.363582 0.39131 0.423167 0.405375 0.364458 0.380613 0.385743 0.359564 
0.284265 0.201782 0.372267 0.382914 0.386281 0.2689 0.434718 0.323939 0.392927 
0.449755 0.397871 0.436182 0.457724 0.439453 0.404542 0.423397 0.409872 0.384372 
0.467237 0.410712 0.381418 0.38413 0.261455 0.180712 0.24478 0.391986 0.32298 
0.37596 0.437997 0.466841 0.379516 0.391712 0.491933 0.368226 0.354482 0.29022 
0.226194 0.329338 0.325895 0.495496 0.49499 0.495084 0.503741 0.49859 0.498412 
0.502882 0.371988 0.262646 0.357539 0.273495 0.170397 0.228184 0.251613 0.34758 
0.340992 0.252734 0.424403 0.4231 0.425915 0.508405 0.503727 0.506847 0.506278 
0.411746 0.427553 0.500398 0.490639 0.489367 0.491293 0.500614 0.502713 0.419958 
0.407239 0.442631 0.412451 0.414916 0.425903 0.418164 0.423194 0.454861 0.528665 
0.543431 0.57099 0.411015 0.234849 0.216277 0.238048 0.394193 0.277564 0.392443 
0.138601 0.141435 0.34071 0.352668 0.370279 0.374373 0.380866 0.61419 0.572924 
0.525864 0.365721 0.415986 0.574112 0.413578 0.593117 0.186677 0.18578 0.198654 
0.230458 0.17673 0.185837 0.200713 0.253591 0.229356 0.167146 0.396958 0.197499 
0.42734 0.577302 0.525242 0.424745 0.407915 0.428603 0.496522 0.364513 0.401517 
0.415783 0.395565 0.420034 0.395043 0.389201 0.544627 0.473143 0.383269 0.362943 
0.363029 0.368152 0.642534 0.542914 0.566953 0.394485 0.560259 0.385144 0.364902 
0.363189 0.252052 0.308274 0.266433 0.282089 0.20238 0.200955 0.213264 0.508454 
0.507206 0.507895 0.507056 0.492202 0.394042 0.379606 0.438284 0.423389 0.39778 
0.514126 0.198994 0.311286 0.253943 0.25589 0.386865 0.267964 0.489963 0.452884 
0.459425 0.47133 0.459561 0.26603 0.388685 0.389538 0.584635 0.417526 0.413189 
0.460809 0.44776 0.408438 0.204412 0.189913 0.15635 0.164447 0.394334 0.40285 
0.450066 0.40955 0.362984 0.424193 0.445255 0.440031 0.446231 0.338012 0.385205 
0.391218 0.378653 0.426618 0.408887 0.391791 0.401981 0.435762 0.427523 0.426523 
0.421571 0.389917 0.409447 0.508704 0.436728 0.47532 0.367097 0.385675 0.38234 
0.269142 0.370715 0.374283 0.363761 0.415651 0.362233 0.436176 0.368073 0.368097 
0.390828 0.431339 0.44299 0.375991 0.371677 0.373362 0.383764 0.488171 0.501704 
0.491718 0.489468 0.307185 0.365151 0.347747 0.432669 0.433676 0.4293 0.252356 
0.172529 0.229971 0.167207 0.184078 0.147462 0.573651 0.482486 0.383597 0.489126 
0.374501 0.457494 0.369819 0.463552 0.489042 0.379143 0.389352 0.448172 0.437078 
0.379529 0.38714 0.412001 0.416365 0.3893 0.394883 0.387922 0.50684 0.418622 
0.422691 0.460871 0.410277 0.404863 0.467583 0.3745 0.393054 0.416237 0.364072 
0.367321 0.372478 0.374578 0.305781 0.295038 0.282028 0.354894 0.420174 0.405001 
0.426114 0.41898 0.418911 0.42418 0.142526 0.146673 0.141364 0.434637 0.466881 
0.416262 0.179319 0.168199 0.519146 0.396882 0.378458 0.635666 0.618928 0.391705 
0.478074 0.495288 0.496288 0.486914 0.471333 0.457052 0.26757 0.457079 0.484444 
0.4649 0.451666 0.411315 0.422081 0.42412 0.427382 0.417672 0.422479 0.314522 
0.417047 0.556075 0.509684 0.506477 0.504218 0.468276 0.364732 0.370676 0.385414 
0.504942 0.408672 0.671909 0.505502 0.414958 0.448192 0.403389 0.44898 0.416539 
0.392385 0.394757 0.406581 0.373543 0.372621 0.377583 0.373241 0.454079 0.351397 
0.372437 0.365194 0.371581 0.438605 0.380142 0.370755 0.412116 0.46624 0.470154 
0.505139 0.49093 0.493511 0.341832 0.400366 0.415054 0.373999 0.375645 0.361115 
0.507048 0.506462 0.424378 0.445969 0.447982 0.484571 0.464177 0.55323 0.285341 
0.179171 0.315615 0.37569 0.371902 0.427702 0.427125 0.448022 0.425089 0.314553 
0.480958 0.447854 0.449829 0.411013 0.388224 0.389993 0.398865 0.418076 0.415767 
0.408939 0.361477 0.42036 0.390395 0.373957 0.38855 0.437685 0.444187 0.368019 
0.384041 0.337783 0.393978 0.506688 0.507583 0.509543 0.507656 0.262446 0.17737 
0.166838 0.145065 0.150953 0.19298 0.449113 0.430536 0.382439 0.35926 0.372664 
0.382097 0.388075 0.418255 0.396008 0.494713 0.500833 0.183991 0.192437 0.201078 
0.143006 0.134103 0.143021 0.425263 0.275242 0.242405 0.222007 0.274261 0.232696 
0.328261 0.490921 0.380395 0.440053 0.423515 0.423485 0.374956 0.416723 0.366955 
0.440825 0.476581 0.487994 0.429483 0.414161 0.410175 0.41556 0.405838 0.399175 
0.335604 0.22513 0.255466 0.419354 0.376053 0.316482 0.496159 0.460869 0.41011 
0.368383 0.491708 0.402748 0.431934 0.413908 0.446762 0.453027 0.212199 0.238307 
0.356183 0.201517 0.20405 0.347151 0.382671 0.442787 0.200768 0.365123 0.370001 
0.424128 0.389659 0.582796 0.42997 0.583843 0.620184 0.420833 0.421348 0.421536 
0.388076 0.461791 0.453258 0.448302 0.490575 0.425938 0.405488 0.417086 0.413959 
0.423396 0.422475 0.389797 0.418125 0.416313 0.478855 0.506168 0.581961 0.51068 
0.40327 0.391216 0.386308 0.385429 0.414508 0.424678 0.404538 0.424573 0.276483 
0.538177 0.361512 0.294569 0.409782 0.376759 0.45402 0.438429 0.442956 0.363285 
0.438634 0.42414 0.450682 0.46199 0.653105 0.603076 0.586226 0.396662 0.46945 
0.410827 0.386716 0.397106 0.254258 0.389174 0.329522 0.308424 0.364177 0.184237 
0.415879 0.412835 0.423786 0.41687 0.419985 0.344367 0.320655 0.344601 0.363824 
0.417175 0.459518 0.451887 0.462974 0.461851 0.469876 0.502843 0.479868 0.477147 
0.487058 0.501555 0.502802 0.486749 0.43185 0.234343 0.427417 0.427984 0.530415 
0.379153 0.378416 0.392285 0.373729 0.274645 0.41419 0.590266 0.605277 0.418367 
0.42624 0.409881 0.238067 0.252615 0.258314 0.413485 0.362712 0.38534 0.357767 
0.381948 0.411304 0.394376 0.374851 0.348069 0.483936 0.41442 0.58592 0.561427 
0.515698 0.594483 0.677549 0.406795 0.49052 0.388115 0.364768 0.382405 0.409578 
0.596394 0.330715 0.407492 0.399995 0.4047 0.383868 0.149674 0.250822 0.285871 
0.182093 0.174718 0.226894 0.246901 0.224562 0.262168 0.271042 0.269188 0.315707 
0.414973 0.411958 0.457347 0.310914 0.431522 0.508224 0.520495 0.437144 0.376314 
0.363099 0.261587 0.400082 0.477932 0.417507 0.472359 0.164813 0.183979 0.152701 
0.165925 0.449741 0.469564 0.457948 0.477044 0.468699 0.386707 0.344928 0.432928 
0.224253 0.367647 0.379184 0.277182 0.334655 0.271366 0.286635 0.352728 0.387832 
0.233266 0.404388 0.414931 0.409576 0.39887 0.470278 0.454087 0.427442 0.423164 
0.479102 0.539459 0.379883 0.570767 0.436962 0.518858 0.452738 0.160742 0.471146 
0.566378 0.557638 0.526099 0.418145 0.464417 0.468043 0.465317 0.395916 0.384824 
0.420101 0.356028 0.378993 0.496441 0.423277 0.417751 0.522563 0.524401 0.532157 
0.597906 0.713681 0.569516 0.670409 0.398512 0.501114 0.384334 0.429576 0.385928 
0.402874 0.438727 0.378558 0.381141 0.400113 0.395182 0.267289 0.388349 0.381813 
0.384864 0.421264 0.518238 0.301689 0.368388 0.502922 0.488524 0.261074 0.306627 
0.247825 0.22744 0.214728 0.324062 0.256225 0.432389 0.39136 0.445816 0.289651 
0.412762 0.362262 0.360342 0.362564 0.37094 0.191396 0.217531 0.204249 0.533451 
0.473276 0.673706 0.446895 0.283845 0.28533 0.270991 0.235348 0.361054 0.358235 
0.353905 0.356012 0.35933 0.432256 0.391678 0.393022 0.242148 0.471663 0.187621 
0.245244 0.167772 0.488209 0.404498 0.312245 0.376712 0.343042 0.330685 0.385929 
0.139491 0.557776 0.135797 0.375815 0.482895 0.49123 0.439773 0.471495 0.493897 
0.486015 0.465829 0.403313 0.42809 0.452343 0.407384 0.385351 0.401419 0.494297 
0.470439 0.500244 0.485475 0.48957 0.42901 0.359765 0.362347 0.385734 0.370752 
0.409958 0.217571 0.164204 0.664253 0.622666 0.573726 0.495566 0.421487 0.636888 
0.583367 0.385527 0.382283 0.399923 0.37964 0.475896 0.567112 0.456492 0.412722 
0.404475 0.456758 0.468191 0.496623 0.466377 0.387038 0.378692 0.396715 0.386524 
0.402275 0.388715 0.398594 0.428958 0.42656 0.426974 0.423946 0.582519 0.576704 
0.608836 0.567361 0.58596 0.182824 0.219367 0.187716 0.165043 0.391271 0.582507 
0.476077 0.491927 0.455695 0.580685 0.479641 0.618492 0.541307 0.435961 0.280047 
0.449246 0.467653 0.630969 0.203257 0.164884 0.228612 0.169695 0.375655 0.362339 
0.356578 0.36283 0.447721 0.470963 0.449253 0.485715 0.345867 0.247505 0.360099 
0.255176 0.169118 0.207156 0.178789 0.607147 0.587727 0.496028 0.371354 0.370535 
0.439091 0.370241 0.404903 0.47335 0.48595 0.492613 0.484611 0.41008 0.397579 
0.502981 0.567693 0.57456 0.394628 0.40435 0.215833 0.174849 0.190198 0.425906 
0.405648 0.397209 0.396628 0.401571 0.584461 0.590293 0.404563 0.417977 0.5595 
0.548111 0.622998 0.366489 0.364439 0.391004 0.388287 0.357461 0.401114 0.424643 
0.364115 0.373876 0.385819 0.405612 0.412175 0.582358 0.493925 0.512749 0.449576 
0.506208 0.489821 0.424279 0.41807 0.418734 0.441773 0.436361 0.439035 0.449982 
0.458032 0.509929 0.434465 0.453759 0.41328 0.462507 0.291657 0.420882 0.290322 
0.450667 0.413173 0.39847 0.362338 0.356866 0.366517 0.365344 0.370824 0.431209 
0.429628 0.547831 0.506071 0.489323 0.59354 0.418898 0.418756 0.436349 0.409303 
0.408625 0.418497 0.443561 0.377447 0.395065 0.408323 0.399963 0.348911 0.359139 
0.478719 0.451449 0.395176 0.552272 0.573667 0.583994 0.250856 0.393347 0.307559 
0.588217 0.394265 0.396483 0.477514 0.404968 0.371271 0.370819 0.393843 0.447556 
0.422805 0.477992 0.388763 0.361655 0.376898 0.412018 0.463763 0.422586 0.428155 
0.441944 0.403289 0.399106 0.403138 0.404583 0.373102 0.495184 0.491452 0.446841 
0.542916 0.391291 0.409247 0.435524 0.476576 0.422154 0.413445 0.406933 0.400854 
0.401215 0.426307 0.379931 0.362611 0.363396 0.365974 0.361702 0.382577 0.399457 
0.366734 0.363787 0.368358 0.402177 0.414562 0.408247 0.434269 0.425993 0.369853 
0.292512 0.380575 0.417259 0.291186 0.393148 0.26398 0.387054 0.367729 0.363664 
0.40322 0.396102 0.152622 0.147031 0.473152 0.482257 0.472368 0.47445 0.478201 
0.404209 0.433913 0.439919 0.407527 0.43128 0.457858 0.443263 0.448884 0.437798 
0.392678 0.386233 0.453944 0.200739 0.205431 0.147977 0.165245 0.153573 0.153777 
0.145169 0.134711 0.358509 0.391425 0.389019 0.385152 0.389835 0.372077 0.386255 
0.241442 0.400326 0.377052 0.523964 0.388574 0.378339 0.39348 0.433774 0.457208 
0.480431 0.45069 0.412547 0.447165 0.479392 0.451968 0.480841 0.455122 0.409601 
0.439704 0.427093 0.426014 0.414192 0.401494 0.422722 0.353912 0.30539 0.347007 
0.383211 0.269642 0.294397 0.269948 0.339996 0.28906 0.34414 0.409175 0.227389 
0.257019 0.231034 0.202589 0.183156 0.184173 0.218548 0.189322 0.18347 0.229166 
0.221313 0.209802 0.504406 0.365433 0.504318 0.500372 0.504403 0.507395 0.50632 
0.500845 0.508192 0.506733 0.506104 0.483131 0.491099 0.477661 0.502255 0.499326 
0.501509 0.487437 0.473982 0.48777 0.481057 0.490744 0.488417 0.428838 0.443005 
0.435605 0.455108 0.453644 0.425812 0.467861 0.464632 0.496451 0.485226 0.484839 
0.488268 0.486105 0.488861 0.500289 0.492743 0.543931 0.499326 0.387289 0.525708 
0.548873 0.597308 0.483977 0.403763 0.375936 0.392523 0.376551 0.36936 0.361852 
0.39619 0.428937 0.42912 0.425082 0.441634 0.42891 0.432034 0.456003 0.447325 
0.402838 0.378415 0.570025 0.505566 0.527794 0.271875 0.312546 0.296468 0.307512 
0.294829 0.428148 0.4341 0.454398 0.427353 0.427969 0.429268 0.428393 0.423488 
0.462182 0.377277 0.376336 0.373179 0.404204 0.390656 0.379345 0.369553 0.389335 
0.32929 0.348281 0.395623 0.300229 0.23899 0.337562 0.46628 0.479147 0.496278 
0.501465 0.486777 0.49967 0.497555 0.5001 0.50233 0.48351 0.488084 0.393173 
0.449182 0.414643 0.449259 0.372519 0.192541 0.271587 0.241943 0.412478 0.409074 
0.413614 0.410646 0.396372 0.415593 0.409486 0.430905 0.419629 0.421234 0.363433 
0.413844 0.437109 0.490753 0.251994 0.334033 0.235545 0.434542 0.32224 0.355541 
0.366258 0.355949 0.373267 0.387716 0.364886 0.326289 0.389076 0.341671 0.386467 
0.361419 0.388119 0.373011 0.371541 0.421226 0.393859 0.273493 0.414541 0.453607 
0.369639 0.373351 0.35415 0.292284 0.40343 0.505715 0.500185 0.501455 0.499476 
0.494473 0.484303 0.371092 0.37434 0.459497 0.297863 0.291874 0.45401 0.47115 
0.365762 0.472158 0.396856 0.450782 0.464259 0.457256 0.464839 0.476539 0.455908 
0.486165 0.450528 0.480868 0.472107 0.450731 0.428475 0.265905 0.41078 0.368623 
0.39314 0.416418 0.411427 0.44047 0.43402 0.411608 0.406643 0.403085 0.414207 
0.408991 0.414175 0.417768 0.360072 0.386071 0.415238 0.36611 0.401132 0.362297 
0.362409 0.365534 0.376046 0.372062 0.367826 0.431143 0.427112 0.399651 0.416181 
0.500551 0.523874 0.582269 0.470951 0.441665 0.449343 0.466998 0.448795 0.458717 
0.455287 0.43981 0.442323 0.46013 0.462209 0.426115 0.452779 0.497176 0.46892 
0.470495 0.47871 0.430094 0.528714 0.380947 0.58387 0.50343 0.45555 0.460732 
0.443358 0.554469 0.43905 0.367508 0.370099 0.361701 0.380175 0.387778 0.232269 
0.231072 0.21558 0.245189 0.289352 0.282827 0.206417 0.237595 0.32466 0.256619 
0.267535 0.384046 0.330434 0.394738 0.438654 0.411888 0.491875 0.465797 0.420693 
0.416674 0.418778 0.415619 0.434834 0.453266 0.420382 0.413233 0.413485 0.449194 
0.430382 0.392737 0.400905 0.3689 0.421596 0.401684 0.41959 0.385565 0.374448 
0.395708 0.467813 0.424799 0.391911 0.413256 0.45192 0.444877 0.174952 0.227517 
0.208808 0.1983 0.195895 0.363953 0.388696 0.386528 0.365939 0.367036 0.392473 
0.39505 0.159936 0.288847 0.182116 0.168521 0.187567 0.207753 0.205609 0.199449 
0.364079 0.373703 0.359403 0.430812 0.413439 0.373909 0.362024 0.407462 0.433595 
0.568867 0.3683 0.380759 0.360922 0.40653 0.477921 0.470373 0.467612 0.473403 
0.425837 0.420986 0.449748 0.448992 0.402928 0.426397 0.427851 0.445288 0.176803 
0.238051 0.2826 0.212556 0.237537 0.236703 0.226827 0.308942 0.464317 0.45526 
0.423186 0.464937 0.424711 0.425628 0.424644 0.410774 0.406694 0.383662 0.380581 
0.415253 0.388277 0.409636 0.398732 0.405621 0.391534 0.4356 0.38001 0.372975 
0.449482 0.392246 0.362436 0.402386 0.402202 0.398438 0.433706 0.394319 0.418991 
0.395358 0.388946 0.409595 0.507008 0.506963 0.507208 0.505437 0.505829 0.497363 
0.499643 0.504547 0.506275 0.506033 0.50572 0.357681 0.366916 0.360779 0.387402 
0.37695 0.465453 0.486366 0.459355 0.401544 0.381302 0.303335 0.444198 0.324495 
0.309633 0.324199 0.338946 0.260252 0.355055 0.466544 0.343481 0.426369 0.435825 
0.378272 0.371524 0.345781 0.178602 0.230635 0.437683 0.438781 0.429224 0.464769 
0.472254 0.491859 0.478368 0.472339 0.489841 0.470731 0.474013 0.445379 0.445393 
0.443908 0.472113 0.477167 0.406134 0.424436 0.454752 0.397838 0.436506 0.397454 
0.439257 0.366319 0.367534 0.377909 0.40638 0.372049 0.373958 0.362267 0.412757 
0.372099 0.385038 0.446595 0.46052 0.410162 0.417941 0.471429 0.481681 0.479526 
0.415721 0.413496 0.422266 0.421027 0.447988 0.418584 0.414145 0.389221 0.283684 
0.215943 0.199343 0.205379 0.214284 0.288918 0.356888 0.28949 0.323815 0.427438 
0.400678 0.397026 0.424178 0.392671 0.418578 0.389058 0.420214 0.392166 0.373719 
0.384138 0.409649 0.391747 0.362584 0.349015 0.371176 0.241679 0.390854 0.381403 
0.386228 0.38704 0.391717 0.34603 0.250755 0.307042 0.392319 0.389557 0.365571 
0.383021 0.435489 0.441346 0.443125 0.380856 0.447786 0.425667 0.426889 0.460806 
0.382377 0.45841 0.44136 0.329097 0.392793 0.429292 0.476262 0.464404 0.448756 
0.421959 0.419667 0.408376 0.414023 0.416382 0.446308 0.406071 0.406343 0.422576 
0.416581 0.369496 0.400403 0.413807 0.420291 0.410561 0.403128 0.40746 0.42391 
0.428612 0.432512 0.417886 0.445791 0.447252 0.408419 0.358501 0.471104 0.401138 
0.412846 0.429369 0.213884 0.232156 0.386376 0.402307 0.404927 0.373057 0.354033 
0.456994 0.386 0.412625 0.452047 0.445837 0.457689 0.368021 0.443118 0.411346 
0.42428 0.41065 0.405283 0.411745 0.407341 0.429598 0.429786 0.501281 0.500692 
0.498229 0.501429 0.484626 0.477554 0.499226 0.386732 0.441386 0.444082 0.42162 
0.42465 0.473148 0.501023 0.485246 0.48169 0.464101 0.473744 0.449404 0.461824 
0.471635 0.457246 0.475074 0.459356 0.382113 0.380987 0.390581 0.423496 0.459297 
0.421234 0.409466 0.409772 0.427325 0.385401 0.385339 0.39 0.386525 0.446839 
0.401731 0.389314 0.371547 0.478432 0.448405 0.482551 0.472751 0.487545 0.49088 
0.488314 0.49091 0.477912 0.443813 0.49511 0.497477 0.477861 0.48264 0.478373 
0.592746 0.627444 0.421085 0.533861 0.328793 0.302947 0.430407 0.424761 0.417856 
0.466127 0.452284 0.469124 0.409182 0.470382 0.426347 0.203126 0.265049 0.300918 
0.201153 0.202223 0.41398 0.469672 0.426883 0.450197 0.449439 0.417185 0.387698 
0.398806 0.412744 0.424471 0.437378 0.43262 0.277782 0.469058 0.410569 0.389599 
0.455281 0.403184 0.505463 0.465167 0.368301 0.251449 0.20152 0.410743 0.361885 
0.368412 0.368328 0.381174 0.386994 0.463738 0.473554 0.481851 0.488821 0.482634 
0.395323 0.413936 0.408249 0.405102 0.414524 0.416995 0.415007 0.368495 0.406801 
0.405063 0.446688 0.407987 0.44348 0.35947 0.383125 0.391216 0.397426 0.366687 
0.249001 0.338358 0.366645 0.376718 0.299991 0.327681 0.434355 0.414175 0.414057 
0.475466 0.485401 0.469592 0.472131 0.377697 0.376228 0.382085 0.374211 0.41892 
0.373967 0.478267 0.381927 0.380086 0.506757 0.494861 0.480539 0.489625 0.481447 
0.47891 0.49099 0.488918 0.494696 0.198488 0.233443 0.26234 0.253751 0.320241 
0.232205 0.225174 0.275096 0.242968 0.480507 0.429052 0.466874 0.366893 0.371891 
0.420103 0.462511 0.264635 0.436848 0.285371 0.425535 0.444743 0.359542 0.435235 
0.413932 0.401628 0.395778 0.409227 0.406924 0.428155 0.425844 0.417043 0.41537 
0.423069 0.411762 0.412668 0.406137 0.423168 0.41193 0.420386 0.478084 0.438027 
0.429857 0.426052 0.436535 0.44491 0.415653 0.420861 0.426026 0.446259 0.434509 
0.452199 0.437541 0.436649 0.441903 0.389388 0.379215 0.408912 0.426908 0.382359 
0.369728 0.365484 0.393605 0.36249 0.412617 0.425337 0.404178 0.431833 0.416563 
0.404239 0.392939 0.416987 0.407845 0.490309 0.417072 0.380466 0.321813 0.46897 
0.454825 0.467753 0.465543 0.299497 0.267177 0.397289 0.283649 0.38641 0.423569 
0.419195 0.385132 0.248935 0.225269 0.248929 0.345047 0.340301 0.388963 0.398366 
0.444233 0.473739 0.469151 0.463945 0.499026 0.322386 0.353703 0.198254 0.294003 
0.34141 0.400831 0.234262 0.236291 0.28978 0.218161 0.316068 0.331128 0.460302 
0.378535 0.417903 0.426409 0.416229 0.410862 0.380825 0.294062 0.311471 0.35697 
0.357695 0.419321 0.420335 0.421896 0.41639 0.457519 0.412058 0.420632 0.413668 
0.421264 0.219748 0.203733 0.220918 0.206704 0.210348 0.217997 0.316094 0.308936 
0.214991 0.41342 0.272871 0.422199 0.4252 0.447971 0.432349 0.426924 0.42506 
0.425139 0.423087 0.423263 0.424276 0.431702 0.421791 0.44488 0.459073 0.454686 
0.451594 0.42125 0.460983 0.479788 0.485628 0.495943 0.504493 0.496529 0.499741 
0.23619 0.23995 0.277947 0.297009 0.429296 0.47533 0.459281 0.443441 0.422259 
0.417772 0.446355 0.430049 0.428698 0.502039 0.47892 0.491727 0.452771 0.432721 
0.464765 0.361268 0.362371 0.368732 0.335921 0.351059 0.376068 0.387358 0.410792 
0.461629 0.445651 0.432591 0.508609 0.454212 0.449695 0.431836 0.431011 0.436268 
0.425846 0.425927 0.383303 0.418131 0.428888 0.407754 0.362212 0.412858 0.399447 
0.450611 0.459565 0.440059 0.44667 0.439381 0.375869 0.40049 0.494093 0.478539 
0.500965 0.465852 0.480968 0.471817 0.479371 0.482715 0.467179 0.469277 0.463002 
0.327323 0.261476 0.354791 0.372252 0.418624 0.372801 0.361134 0.365548 0.366452 
0.372414 0.365819 0.373502 0.409719 0.421785 0.483249 0.435494 0.444865 0.469245 
0.48474 0.407313 0.41065 0.468714 0.398568 0.420821 0.39693 0.417184 0.404142 
0.419702 0.409427 0.409359 0.42582 0.41795 0.439155 0.437444 0.450398 0.451823 
0.453148 0.45486 0.442997 0.454436 0.461237 0.346816 0.357757 0.347439 0.322385 
0.32708 0.465011 0.433037 0.428374 0.441869 0.45625 0.433828 0.424838 0.452722 
0.466054 0.426557 0.446073 0.420768 0.429806 0.387007 0.415193 0.454157 0.459685 
0.47123 0.465318 0.484575 0.476642 0.486677 0.439264 0.419755 0.456104 0.462799 
0.453259 0.465962 0.403113 0.449777 0.437049 0.274293 0.315956 0.26132 0.254038 
0.251482 0.255423 0.276867 0.411936 0.27343 0.50118 0.505439 0.499642 0.496239 
0.498977 0.477896 0.485858 0.489999 0.495604 0.430745 0.406045 0.388332 0.390228 
0.393585 0.393554 0.388121 0.398746 0.390224 0.398669 0.39364 0.460206 0.382593 
0.157986 0.191637 0.238805 0.175643 0.445243 0.45375 0.442388 0.460946 0.459764 
0.411867 0.422193 0.413714 0.410635 0.389934 0.385105 0.385291 0.387482 0.389917 
0.402375 0.405913 0.402162 0.409786 0.332365 0.441364 0.397 0.385627 0.421731 
0.398235 0.380696 0.427455 0.417941 0.439383 0.397146 0.399505 0.382102 0.383499 
0.487351 0.444636 0.429119 0.488731 0.460935 0.425241 0.423271 0.425166 0.427157 
0.422749 0.390069 0.374547 0.372866 0.375284 0.37726 0.374591 0.380397 0.37714 
0.252169 0.365755 0.390186 0.372405 0.377525 0.368494 0.365504 0.372499 0.489156 
0.492349 0.492665 0.498998 0.493658 0.493973 0.496161 0.458849 0.394133 0.408377 
0.389504 0.421565 0.432015 0.417638 0.432438 0.361317 0.486374 0.482367 0.474606 
0.495411 0.484005 0.473995 0.46756 0.461844 0.490952 0.496449 0.487976 0.472446 
0.472383 0.474314 0.491208 0.45463 0.479539 0.420125 0.461168 0.453078 0.469673 
0.497526 0.502288 0.497167 0.500789 0.499876 0.504118 0.498354 0.504374 0.391517 
0.377232 0.429263 0.428673 0.391695 0.294753 0.351616 0.414632 0.353215 0.370272 
0.307548 0.202035 0.219238 0.198433 0.207346 0.193608 0.229584 0.293165 0.419247 
0.428167 0.45317 0.376433 0.426543 0.428098 0.404028 0.459263 0.429399 0.458326 
0.441599 0.451713 0.459909 0.438567 0.445678 0.450098 0.468637 0.424552 0.450549 
0.437932 0.427712 0.427091 0.435649 0.42936 0.439022 0.423054 0.438391 0.426162 
0.416694 0.440261 0.441346 0.374798 0.370506 0.390315 0.385917 0.359449 0.368157 
0.403066 0.411067 0.443553 0.459194 0.448307 0.434749 0.41897 0.386586 0.419486 
0.429204 0.411838 0.414874 0.415482 0.395434 0.425807 0.416546 0.427688 0.41598 
0.404571 0.422968 0.424852 0.401297 0.439817 0.429716 0.436076 0.476867 0.407043 
0.426916 0.455264 0.459949 0.470774 0.440607 0.405041 0.462919 0.431877 0.416941 
0.349505 0.395774 0.479663 0.38555 0.38671 0.245723 0.380775 0.387095 0.391964 
0.392552 0.390263 0.362184 0.295469 0.18576 0.275328 0.224157 0.420439 0.15369 
0.209055 0.236081 0.303537 0.193606 0.406644 0.423842 0.410263 0.397679 0.394615 
0.38292 0.397338 0.413289 0.420336 0.413464 0.497592 0.475157 0.479632 0.472756 
0.464068 0.411074 0.408795 0.427214 0.400461 0.41491 0.410927 0.39754 0.428252 
0.471955 0.467018 0.461929 0.458624 0.452702 0.193134 0.185911 0.149434 0.184515 
0.185195 0.181798 0.29813 0.366803 0.333485 0.374716 0.365073 0.324734 0.515774 
0.439331 0.657558 0.471816 0.453148 0.486393 0.551333 0.583277 0.459447 0.391539 
0.390517 0.393784 0.401143 0.47137 0.395177 0.413787 0.398315 0.390192 0.426398 
0.393179 0.451116 0.391972 0.397661 0.401406 0.361309 0.425934 0.387911 0.531005 
0.494527 0.524285 0.453913 0.375814 0.392603 0.375359 0.360898 0.36195 0.388305 
0.375592 0.376745 0.48686 0.491188 0.497345 0.498103 0.478653 0.502564 0.49318 
0.504262 0.470335 0.388163 0.372486 0.394361 0.402875 0.385466 0.393439 0.393483 
0.497723 0.50153 0.4967 0.500076 0.50466 0.506081 0.502659 0.498923 0.492892 
0.490857 0.389376 0.459763 0.429534 0.452016 0.447749 0.427353 0.449189 0.456332 
0.452291 0.460718 0.412629 0.462718 0.379854 0.377013 0.389623 0.437459 0.479531 
0.46198 0.387376 0.433508 0.347275 0.472178 0.374725 0.407352 0.41627 0.356548 
0.44153 0.385399 0.406082 0.358346 0.419441 0.435986 0.433718 0.411559 0.420868 
0.418002 0.432722 0.405082 0.406314 0.414978 0.394343 0.414303 0.45109 0.471616 
0.387519 0.379909 0.374415 0.390621 0.370868 0.38844 0.250039 0.371512 0.58951 
0.363669 0.330895 0.643216 0.493701 0.434578 0.272649 0.429876 0.440264 0.426217 
0.440339 0.3914 0.470097 0.394755 0.366278 0.377807 0.359035 0.397919 0.391043 
0.391285 0.389057 0.393983 0.374411 0.406765 0.430619 0.406434 0.403107 0.407858 
0.308536 0.420882 0.341092 0.349185 0.376329 0.402231 0.38641 0.265715 0.360684 
0.289356 0.282115 0.360953 0.187685 0.28233 0.324891 0.279841 0.376809 0.392624 
0.383239 0.39416 0.389399 0.386221 0.366483 0.371421 0.362004 0.424351 0.418943 
0.432978 0.419633 0.420411 0.413061 0.422402 0.419437 0.422996 0.504279 0.506818 
0.506425 0.504487 0.505927 0.37361 0.424825 0.367396 0.373309 0.398677 0.449683 
0.379571 0.386535 0.389432 0.384844 0.485296 0.476705 0.470523 0.315643 0.366861 
0.278506 0.282656 0.275311 0.416942 0.415268 0.418413 0.412719 0.418928 0.424591 
0.421122 0.463895 0.416359 0.477958 0.442066 0.386854 0.386081 0.376113 0.460679 
0.442325 0.400451 0.462624 0.43116 0.471468 0.443724 0.417281 0.457149 0.439812 
0.382964 0.369204 0.219821 0.237724 0.332244 0.411686 0.421506 0.416904 0.391696 
0.394046 0.418792 0.358689 0.326775 0.377988 0.409682 0.40376 0.481268 0.388055 
0.394773 0.433005 0.549497 0.451618 0.434322 0.460273 0.199675 0.225919 0.473533 
0.225964 0.18433 0.188156 0.186214 0.449049 0.459474 0.430673 0.461799 0.46548 
0.440729 0.454438 0.414484 0.374643 0.362168 0.381447 0.424533 0.429154 0.418186 
0.411477 0.415795 0.35996 0.384582 0.364653 0.395976 0.364775 0.365749 0.367546 
0.378045 0.36087 0.385727 0.389224 0.403194 0.398807 0.421159 0.367603 0.376886 
0.399883 0.360801 0.390732 0.387373 0.358681 0.500795 0.486711 0.441346 0.402083 
0.36904 0.406739 0.213188 0.394689 0.445021 0.429921 0.426114 0.423389 0.461283 
0.437236 0.431073 0.456736 0.263153 0.370143 0.417104 0.38626 0.361701 0.378791 
0.36405 0.189025 0.195345 0.212871 0.204156 0.222358 0.214036 0.174876 0.181216 
0.328819 0.429506 0.432442 0.290159 0.367039 0.367643 0.401116 0.436691 0.440665 
0.442405 0.444401 0.446765 0.445745 0.457444 0.428135 0.429501 0.451401 0.446732 
0.42823 0.428703 0.429128 0.423625 0.42779 0.42452 0.395797 0.395047 0.46693 
0.396719 0.405296 0.398722 0.40381 0.387403 0.392387 0.411511 0.402487 0.398433 
0.406645 0.397289 0.397148 0.44295 0.446073 0.446678 0.455058 0.442208 0.440727 
0.442132 0.447745 0.443799 0.448841 0.390975 0.432397 0.384848 0.358302 0.554984 
0.3526 0.386293 0.471792 0.385408 0.395188 0.413374 0.416584 0.401221 0.417188 
0.431988 0.410033 0.421454 0.420503 0.416641 0.426781 0.423199 0.449996 0.461467 
0.451606 0.427046 0.466309 0.452577 0.429879 0.43184 0.436172 0.424128 0.425593 
0.454111 0.400358 0.421655 0.453048 0.474237 0.423656 0.422584 0.457732 0.453473 
0.421701 0.385035 0.447003 0.506723 0.377342 0.387698 0.509737 0.538883 0.399035 
0.43244 0.54841 0.491232 0.592516 0.163213 0.477613 0.487431 0.45716 0.481008 
0.501054 0.460461 0.461053 0.413201 0.438137 0.464884 0.318305 0.378254 0.415452 
0.420354 0.476204 0.48236 0.489257 0.487355 0.481556 0.245855 0.276225 0.236762 
0.233669 0.284369 0.34258 0.248321 0.293177 0.332913 0.313285 0.322308 0.236238 
0.210365 0.227662 0.21481 0.449907 0.478178 0.475487 0.462455 0.468345 0.480604 
0.473615 0.46944 0.4915 0.45133 0.457393 0.459264 0.474225 0.483113 0.451593 
0.478448 0.439863 0.418322 0.385131 0.415158 0.386509 0.469484 0.45505 0.391397 
0.419391 0.392876 0.298038 0.37306 0.229802 0.208226 0.182504 0.166 0.167418 
0.380744 0.358968 0.381406 0.377941 0.372362 0.386593 0.336062 0.314155 0.327125 
0.265465 0.340264 0.386581 0.363712 0.37849 0.345068 0.424825 0.444479 0.410694 
0.463171 0.406104 0.406979 0.337466 0.382591 0.385632 0.376128 0.325527 0.370832 
0.389922 0.392218 0.376489 0.360655 0.381895 0.405738 0.409739 0.430996 0.411652 
0.420479 0.432332 0.444157 0.442322 0.42259 0.433313 0.433879 0.4358 0.426656 
0.453555 0.443537 0.421362 0.45547 0.462196 0.467793 0.432375 0.422545 0.484838 
0.482143 0.49209 0.49046 0.495143 0.480831 0.442196 0.420632 0.462959 0.415088 
0.415418 0.448268 0.420644 0.419142 0.423591 0.414718 0.189249 0.175586 0.182279 
0.218081 0.199453 0.192382 0.226786 0.197697 0.49817 0.605636 0.501331 0.488076 
0.49458 0.493536 0.496183 0.495139 0.479961 0.477972 0.475713 0.472758 0.486997 
0.47506 0.460508 0.307255 0.308146 0.42209 0.449757 0.456559 0.466158 0.46617 
0.459501 0.469269 0.457477 0.443689 0.439937 0.438357 0.449403 0.433712 0.435365 
0.429208 0.228121 0.322147 0.292872 0.23643 0.252163 0.30124 0.279846 0.204001 
0.229871 0.411616 0.390643 0.397608 0.429659 0.402215 0.382869 0.43147 0.420329 
0.379286 0.417506 0.421009 0.436718 0.474118 0.47626 0.48532 0.454355 0.473714 
0.496548 0.503631 0.475656 0.490644 0.387524 0.378584 0.389998 0.388169 0.422122 
0.421569 0.424732 0.42262 0.414082 0.422799 0.441 0.422772 0.424839 0.490653 
0.496876 0.477444 0.488445 0.475887 0.494659 0.385262 0.38759 0.37731 0.382835 
0.440136 0.331739 0.240849 0.480354 0.386282 0.429738 0.416223 0.419321 0.430097 
0.425202 0.422989 0.423617 0.423296 0.421721 0.431899 0.422949 0.421374 0.420678 
0.417512 0.421577 0.413976 0.470034 0.416204 0.443605 0.436237 0.437012 0.386912 
0.421938 0.419947 0.434261 0.436606 0.433247 0.454494 0.569267 0.409538 0.393972 
0.408541 0.38644 0.333231 0.377667 0.362579 0.39059 0.332597 0.268462 0.431827 
0.450909 0.435783 0.42482 0.439682 0.4382 0.443405 0.449742 0.407121 0.391659 
0.386953 0.391991 0.382715 0.398467 0.378971 0.404609 0.390065 0.440052 0.393266 
0.398435 0.403385 0.411973 0.440076 0.421794 0.439241 0.422505 0.457358 0.427533 
0.448385 0.415749 0.298084 0.314092 0.265144 0.277709 0.282134 0.455742 0.463125 
0.439801 0.46479 0.45394 0.452193 0.452221 0.453176 0.467138 0.202144 0.422535 
0.187135 0.182806 0.255137 0.211951 0.251179 0.261026 0.406542 0.377374 0.229625 
0.311747 0.443867 0.450652 0.432299 0.42338 0.444665 0.387132 0.404363 0.389285 
0.400398 0.411024 0.440006 0.437593 0.429459 0.420189 0.417725 0.405913 0.381498 
0.416944 0.404756 0.44504 0.399561 0.390104 0.38417 0.411113 0.360955 0.449813 
0.386678 0.412359 0.402497 0.36549 0.543536 0.345231 0.371606 0.395453 0.272974 
0.20998 0.323007 0.281305 0.207091 0.259192 0.258987 0.43517 0.425652 0.424799 
0.425128 0.428689 0.430297 0.42801 0.42957 0.422816 0.415788 0.3926 0.403948 
0.367468 0.41074 0.398358 0.3728 0.377685 0.371776 0.317775 0.34645 0.349096 
0.321759 0.430903 0.425478 0.425882 0.432292 0.42563 0.427954 0.425712 0.425571 
0.420841 0.400401 0.408124 0.405587 0.391018 0.393925 0.392544 0.390623 0.356067 
0.380374 0.38057 0.417974 0.428916 0.329021 0.440812 0.42952 0.400909 0.456631 
0.6088 0.40498 0.462361 0.493099 0.487647 0.537325 0.372088 0.397639 0.448335 
0.515955 0.422396 0.429119 0.349276 0.444761 0.414222 0.430457 0.425624 0.417768 
0.45886 0.424438 0.407481 0.417988 0.375624 0.372966 0.375848 0.382161 0.375591 
0.371039 0.381114 0.367759 0.368617 0.387725 0.3922 0.433397 0.437975 0.43379 
0.441185 0.427776 0.268217 0.254244 0.30672 0.287563 0.297768 0.302504 0.436172 
0.442964 0.450356 0.427266 0.448781 0.429899 0.417509 0.445711 0.411435 0.371902 
0.493056 0.427458 0.372299 0.366636 0.489626 0.35102 0.286714 0.316346 0.277604 
0.325099 0.192029 0.236724 0.219951 0.220707 0.303665 0.219411 0.19318 0.199648 
0.231274 0.231234 0.507406 0.406973 0.410018 0.397735 0.40003 0.215667 0.280369 
0.215762 0.406036 0.348214 0.295406 0.258104 0.378354 0.338152 0.313148 0.368471 
0.295436 0.351672 0.389582 0.451383 0.421088 0.421278 0.424786 0.417524 0.436685 
0.430129 0.427561 0.433068 0.394886 0.409252 0.414288 0.459596 0.418074 0.442067 
0.451076 0.454014 0.490406 0.429513 0.488741 0.488063 0.492039 0.490374 0.497216 
0.501825 0.438499 0.402227 0.387353 0.411898 0.393798 0.390661 0.396584 0.446489 
0.404436 0.394289 0.430957 0.42306 0.419786 0.409076 0.403871 0.396855 0.409254 
0.414765 0.405099 0.405383 0.418088 0.413555 0.41183 0.438102 0.400351 0.465468 
0.426124 0.398018 0.454507 0.414757 0.362025 0.380516 0.411942 0.428236 0.386275 
0.375212 0.364881 0.381311 0.412341 0.42135 0.379579 0.401873 0.27066 0.407352 
0.292624 0.393373 0.377179 0.356066 0.373031 0.377445 0.383094 0.393996 0.418339 
0.37113 0.373008 0.374587 0.382262 0.412112 0.497609 0.500074 0.504937 0.504696 
0.486796 0.482759 0.482818 0.409095 0.401007 0.41731 0.417196 0.435917 0.42648 
0.442407 0.427081 0.46858 0.472965 0.456659 0.467834 0.466578 0.47233 0.454364 
0.474481 0.422899 0.468589 0.429644 0.408446 0.423774 0.431019 0.412255 0.434856 
0.454588 0.32839 0.401906 0.453012 0.423428 0.398075 0.365243 0.403908 0.428191 
0.419441 0.458522 0.417358 0.424547 0.455148 0.20899 0.37207 0.307265 0.23333 
0.228814 0.2231 0.21321 0.215409 0.225412 0.215522 0.327267 0.347043 0.433171 
0.396621 0.37247 0.399016 0.379102 0.363944 0.493807 0.39388 0.16868 0.267572 
0.263798 0.172189 0.193517 0.202378 0.242688 0.315537 0.307657 0.362529 0.29959 
0.372576 0.416286 0.411409 0.273509 0.250691 0.473899 0.373711 0.470739 0.447643 
0.375255 0.377952 0.233455 0.420333 0.352365 0.278704 0.301163 0.335384 0.375376 
0.398174 0.283028 0.362768 0.271295 0.432943 0.432676 0.435776 0.422018 0.429816 
0.436445 0.30467 0.282479 0.261749 0.261518 0.2024 0.237178 0.247915 0.266022 
0.235118 0.275156 0.246805 0.281812 0.396159 0.212848 0.227029 0.276241 0.33248 
0.241256 0.249925 0.405286 0.413027 0.419095 0.41057 0.372658 0.377202 0.429244 
0.372858 0.423094 0.379881 0.37389 0.387263 0.335383 0.335708 0.291016 0.444366 
0.41159 0.412002 0.438008 0.423594 0.423017 0.443926 0.429458 0.435998 0.409405 
0.415585 0.437706 0.384627 0.431666 0.404969 0.464742 0.405359 0.432779 0.414966 
0.316997 0.576563 0.389953 0.38613 0.387101 0.390527 0.385027 0.391661 0.53108 
0.513721 0.353726 0.441293 0.52387 0.402716 0.569272 0.429763 0.410739 0.428853 
0.380688 0.465759 0.197037 0.444216 0.418859 0.40602 0.410106 0.409969 0.469796 
0.475492 0.406453 0.480293 0.470716 0.365109 0.297732 0.403438 0.399251 0.47581 
0.379444 0.405137 0.403611 0.443627 0.341379 0.341535 0.431882 0.358045 0.369524 
0.362987 0.379028 0.310899 0.38726 0.388617 0.286291 0.159709 0.165723 0.238232 
0.213615 0.243427 0.291948 0.170838 0.188607 0.212404 0.240911 0.190377 0.195068 
0.185387 0.159644 0.473446 0.500648 0.498549 0.477429 0.421125 0.483666 0.488032 
0.474371 0.473449 0.478047 0.488189 0.294018 0.311205 0.324065 0.264783 0.36797 
0.410909 0.39514 0.369053 0.385341 0.375636 0.385147 0.391323 0.381627 0.389415 
0.43733 0.410048 0.408913 0.401214 0.278416 0.389115 0.387821 0.36388 0.378765 
0.373642 0.366028 0.382714 0.372286 0.365016 0.364176 0.367797 0.383056 0.385329 
0.37905 0.387515 0.384095 0.362561 0.388764 0.360958 0.382742 0.591156 0.454924 
0.388597 0.446821 0.321625 0.232906 0.329943 0.332306 0.340255 0.222129 0.308492 
0.29443 0.441775 0.4302 0.437979 0.42515 0.435872 0.431554 0.486494 0.411097 
0.424489 0.448539 0.473904 0.437326 0.399676 0.442225 0.446724 0.430855 0.431244 
0.404905 0.429236 0.423658 0.463517 0.448892 0.470228 0.45578 0.448855 0.422233 
0.463582 0.455142 0.447399 0.432333 0.457066 0.454888 0.417635 0.40851 0.343456 
0.484572 0.476258 0.471921 0.578887 0.556428 0.163556 0.24303 0.197735 0.174738 
0.170264 0.213535 0.438875 0.462332 0.47033 0.464656 0.474094 0.46566 0.470684 
0.488223 0.264196 0.357375 0.362638 0.362431 0.363585 0.379514 0.375676 0.373698 
0.439482 0.40338 0.45524 0.448192 0.364633 0.374471 0.413531 0.365857 0.366542 
0.380078 0.379431 0.403606 0.3773 0.384907 0.378139 0.38329 0.20605 0.188263 
0.200696 0.178314 0.209504 0.183623 0.470636 0.467054 0.474338 0.479398 0.470852 
0.470679 0.477186 0.483389 0.475498 0.489756 0.486061 0.294429 0.340122 0.283817 
0.27637 0.387503 0.355492 0.376543 0.380868 0.424037 0.436829 0.43647 0.4348 
0.38146 0.380779 0.378412 0.379162 0.381529 0.383369 0.387487 0.399049 0.387155 
0.422805 0.417645 0.448933 0.426987 0.390504 0.425633 0.41243 0.416437 0.424449 
0.422522 0.385992 0.464732 0.46913 0.46908 0.474302 0.471374 0.471324 0.35911 
0.378236 0.380233 0.367303 0.362779 0.379486 0.379103 0.40136 0.373056 0.386459 
0.426301 0.419483 0.431382 0.425576 0.42562 0.239995 0.244339 0.374119 0.388174 
0.384837 0.422481 0.436604 0.292984 0.352508 0.3975 0.460279 0.373987 0.38543 
0.398493 0.403578 0.38317 0.36811 0.386085 0.358028 0.365699 0.383484 0.359835 
0.403599 0.370314 0.391952 0.239558 0.171893 0.190855 0.158902 0.456885 0.44787 
0.446564 0.454595 0.45394 0.450129 0.452073 0.455884 0.452881 0.475087 0.379285 
0.390336 0.401502 0.49546 0.228747 0.336399 0.285399 0.24259 0.409152 0.381261 
0.368131 0.368305 0.416987 0.361455 0.362966 0.191227 0.212619 0.34529 0.199046 
0.19885 0.220369 0.485628 0.390013 0.377234 0.384773 0.391301 0.385263 0.314468 
0.340783 0.327651 0.30462 0.354882 0.281249 0.258511 0.237738 0.330856 0.427007 
0.39642 0.389553 0.399755 0.412662 0.509473 0.41168 0.360039 0.371799 0.347549 
0.35931 0.249912 0.256685 0.248878 0.361041 0.424545 0.461904 0.347831 0.458187 
0.455211 0.465671 0.462484 0.462417 0.460857 0.459194 0.461075 0.426577 0.417727 
0.423109 0.423377 0.428329 0.426843 0.423771 0.421446 0.419621 0.428382 0.429807 
0.42868 0.439269 0.44467 0.44625 0.386359 0.391705 0.434266 0.4012 0.397521 
0.442331 0.412828 0.441227 0.45244 0.383059 0.398464 0.408913 0.387123 0.386144 
0.369783 0.400398 0.441272 0.434729 0.420925 0.429668 0.420429 0.436161 0.446174 
0.425906 0.418119 0.419264 0.427259 0.426569 0.420144 0.365846 0.475149 0.491406 
0.486297 0.428525 0.484851 0.488824 0.494002 0.494876 0.475384 0.475516 0.493624 
0.481877 0.470711 0.490128 0.472129 0.409753 0.339605 0.377646 0.387353 0.391229 
0.385604 0.488111 0.485606 0.481969 0.487906 0.484458 0.432272 0.491228 0.415879 
0.421215 0.412298 0.424407 0.426678 0.409179 0.413033 0.429279 0.406267 0.406277 
0.38768 0.424424 0.403761 0.40792 0.393689 0.421284 0.434217 0.479025 0.401111 
0.493659 0.341139 0.4401 0.468399 0.416336 0.444888 0.432021 0.449837 0.455585 
0.467889 0.179926 0.186045 0.179971 0.195186 0.193535 0.189434 0.191085 0.208234 
0.467499 0.425823 0.473938 0.417807 0.451967 0.406261 0.450713 0.461157 0.448651 
0.465076 0.426118 0.456391 0.451548 0.447066 0.434701 0.463823 0.462403 0.456808 
0.425141 0.434932 0.430739 0.448251 0.43366 0.411467 0.407257 0.403405 0.389649 
0.392995 0.416687 0.404173 0.408466 0.403215 0.505036 0.501174 0.505992 0.503555 
0.504682 0.5019 0.504726 0.410268 0.400554 0.499617 0.481774 0.497705 0.484774 
0.499485 0.495227 0.500948 0.482331 0.494718 0.414165 0.411699 0.405232 0.401488 
0.411797 0.403781 0.406422 0.400596 0.490135 0.485405 0.497667 0.492597 0.499703 
0.493379 0.499958 0.394897 0.395855 0.396575 0.40379 0.39153 0.40364 0.39138 
0.384017 0.364269 0.369193 0.369676 0.434157 0.429359 0.43067 0.425821 0.430358 
0.422756 0.296572 0.291469 0.328651 0.344306 0.440499 0.399395 0.446786 0.448149 
0.472831 0.379321 0.391867 0.409185 0.387078 0.398073 0.47542 0.493202 0.501246 
0.478382 0.491476 0.49922 0.457229 0.497226 0.475043 0.477762 0.486447 0.489147 
0.372272 0.398878 0.370193 0.384491 0.400885 0.427576 0.449136 0.428312 0.424429 
0.425471 0.427144 0.426475 0.425233 0.431241 0.423524 0.423042 0.482711 0.455425 
0.450997 0.458128 0.444912 0.44018 0.436328 0.35614 0.439202 0.466244 0.442537 
0.433583 0.629103 0.537782 0.573939 0.597249 0.548088 0.585434 0.59866 0.521997 
0.543403 0.448344 0.47104 0.455313 0.444442 0.440293 0.445246 0.446064 0.434392 
0.432837 0.438911 0.446297 0.458492 0.457911 0.434994 0.37917 0.306899 0.433725 
0.433333 0.432584 0.431407 0.430822 0.427699 0.424302 0.43095 0.427778 0.414937 
0.414112 0.416936 0.42054 0.427307 0.41006 0.421669 0.375295 0.428899 0.432512 
0.437835 0.430348 0.446637 0.453088 0.457176 0.37011 0.575544 0.359879 0.386251 
0.387732 0.287482 0.418283 0.380138 0.360647 0.387294 0.382064 0.302085 0.384454 
0.359734 0.400365 0.428271 0.423858 0.428522 0.429769 0.357484 0.291166 0.371583 
0.406886 0.361431 0.394765 0.310265 0.429117 0.426301 0.429889 0.450884 0.425623 
0.212456 0.214391 0.208883 0.212915 0.221612 0.218097 0.213827 0.36386 0.365282 
0.363929 0.358837 0.372975 0.387553 0.380137 0.503215 0.505167 0.503691 0.499371 
0.500293 0.498289 0.500386 0.500027 0.35596 0.357668 0.37724 0.361743 0.426493 
0.430654 0.431913 0.43432 0.428729 0.431453 0.423355 0.432264 0.425599 0.429017 
0.431692 0.494189 0.467339 0.495259 0.488392 0.472832 0.488959 0.486005 0.340531 
0.31001 0.463748 0.268274 0.430002 0.395287 0.420059 0.450452 0.451054 0.464711 
0.420128 0.459132 0.285505 0.381257 0.244641 0.262985 0.173539 0.209642 0.223459 
0.219882 0.392618 0.325537 0.27707 0.358251 0.241899 0.292282 0.264982 0.381992 
0.372813 0.409606 0.416384 0.475398 0.430186 0.331689 0.396425 0.467163 0.415637 
0.290065 0.26609 0.401252 0.381554 0.429667 0.453111 0.449848 0.433259 0.438888 
0.438168 0.43069 0.246793 0.230866 0.23324 0.256557 0.244037 0.356323 0.316559 
0.405082 0.403015 0.407385 0.407238 0.402122 0.402381 0.399268 0.425092 0.425299 
0.431234 0.437443 0.450613 0.249302 0.238309 0.244005 0.253946 0.250506 0.305457 
0.303639 0.376849 0.385209 0.37775 0.380245 0.389836 0.436059 0.420861 0.42311 
0.466198 0.469266 0.495165 0.474319 0.45024 0.466878 0.460177 0.409338 0.295767 
0.284118 0.347382 0.292611 0.340144 0.355787 0.340924 0.353943 0.404874 0.271179 
0.255075 0.281142 0.268011 0.422727 0.416566 0.419948 0.426391 0.422755 0.636735 
0.562334 0.611508 0.583149 0.500197 0.469156 0.545312 0.514271 0.481174 0.443288 
0.457134 0.373251 0.443622 0.452518 0.507187 0.535903 0.477957 0.505058 0.461536 
0.389177 0.276375 0.419436 0.42206 0.428736 0.472608 0.487106 0.474573 0.488124 
0.48764 0.467389 0.401273 0.40408 0.408641 0.478545 0.490592 0.465789 0.450043 
0.464654 0.409418 0.473305 0.458439 0.466137 0.44579 0.383449 0.379484 0.401902 
0.441675 0.423117 0.372735 0.410951 0.333547 0.495571 0.495976 0.499827 0.496077 
0.502352 0.501338 0.463027 0.45891 0.454495 0.450294 0.468744 0.374429 0.35743 
0.428222 0.348025 0.413139 0.38047 0.385519 0.302274 0.38364 0.368282 0.402589 
0.381381 0.391736 0.48565 0.481674 0.557032 0.569923 0.467919 0.629053 0.42565 
0.417797 0.421484 0.420222 0.418671 0.503259 0.503667 0.485778 0.470947 0.494484 
0.478208 0.481731 0.493213 0.462228 0.486703 0.469076 0.464435 0.47848 0.373667 
0.338227 0.317529 0.380028 0.394158 0.214189 0.473887 0.475958 0.472733 0.469827 
0.470543 0.440143 0.488157 0.369798 0.362453 0.49914 0.41901 0.410132 0.423923 
0.417425 0.416267 0.432772 0.427973 0.506494 0.50595 0.505998 0.507154 0.502158 
0.417576 0.619778 0.410564 0.440536 0.438868 0.496822 0.494591 0.478239 0.4497 
0.432899 0.4634 0.386152 0.472994 0.480938 0.477458 0.475179 0.468951 0.468435 
0.486082 0.433278 0.431725 0.429736 0.431846 0.471852 0.469737 0.474257 0.477986 
0.469887 0.358773 0.430355 0.427382 0.430417 0.429219 0.425148 0.425029 0.430554 
0.296903 0.379503 0.312562 0.269418 0.320756 0.371689 0.366349 0.20833 0.357671 
0.188498 0.261456 0.225384 0.221595 0.231896 0.352346 0.213504 0.501804 0.504953 
0.504264 0.504143 0.507299 0.504852 0.427336 0.433569 0.430684 0.431208 0.425133 
0.434469 0.42043 0.4271 0.425881 0.412746 0.446631 0.451617 0.408628 0.424175 
0.417168 0.417511 0.412964 0.412571 0.413009 0.432955 0.411622 0.400021 0.401797 
0.399701 0.397077 0.614238 0.40671 0.41531 0.396738 0.433087 0.425137 0.421338 
0.431987 0.43411 0.434864 0.397894 0.402416 0.403057 0.403233 0.400747 0.395095 
0.417259 0.387247 0.387082 0.428003 0.424247 0.431257 0.23394 0.266048 0.190901 
0.214762 0.308551 0.223359 0.206781 0.245806 0.481502 0.502609 0.502884 0.505811 
0.502862 0.505767 0.504807 0.428843 0.405459 0.394356 0.492693 0.388249 0.403277 
0.448277 0.393764 0.418375 0.428388 0.389549 0.345247 0.339352 0.474371 0.470952 
0.473643 0.46981 0.472501 0.421598 0.410873 0.362008 0.222667 0.249102 0.268563 
0.335148 0.354706 0.3163 0.374033 0.378913 0.396939 0.397404 0.365938 0.389467 
0.380573 0.423778 0.396757 0.430595 0.406293 0.423453 0.397485 0.386147 0.408615 
0.397276 0.419194 0.415902 0.399162 0.382459 0.45621 0.426139 0.430457 0.466183 
0.484553 0.447854 0.431586 0.414037 0.42614 0.386662 0.393248 0.378609 0.396492 
0.498165 0.380512 0.374163 0.386164 0.413329 0.380246 0.289443 0.427389 0.433243 
0.421728 0.422365 0.423934 0.427186 0.421751 0.431163 0.26429 0.412757 0.402802 
0.389346 0.438874 0.460992 0.412518 0.458866 0.366068 0.506664 0.794388 0.498728 
0.505694 0.496763 0.498869 0.496377 0.356055 0.383548 0.361671 0.411691 0.363016 
0.364809 0.361481 0.467451 0.459301 0.47794 0.470314 0.466727 0.473677 0.429853 
0.446466 0.445058 0.424519 0.454964 0.455417 0.458508 0.423376 0.427391 0.425662 
0.379972 0.609675 0.384036 0.361455 0.363022 0.411677 0.313373 0.407551 0.36882 
0.419119 0.417281 0.435868 0.429556 0.45759 0.456588 0.454826 0.474069 0.408532 
0.419727 0.19793 0.282366 0.404471 0.431485 0.352465 0.347593 0.331659 0.324115 
0.449835 0.33443 0.396671 0.393826 0.472948 0.432018 0.419509 0.43282 0.2947 
0.309272 0.307327 0.296958 0.302846 0.286549 0.292569 0.44401 0.414487 0.433441 
0.363875 0.43147 0.429373 0.42417 0.427834 0.421534 0.446437 0.409032 0.403475 
0.428703 0.423611 0.415044 0.476375 0.418544 0.464388 0.428462 0.438399 0.406822 
0.426326 0.458936 0.463621 0.438999 0.449901 0.306489 0.212443 0.21641 0.185475 
0.204084 0.186563 0.215709 0.258971 0.503196 0.503473 0.500675 0.50363 0.506445 
0.504137 0.504665 0.420009 0.381842 0.383304 0.386015 0.405174 0.37718 0.393 
0.365961 0.353145 0.326684 0.310762 0.329729 0.408112 0.479025 0.414751 0.405504 
0.424427 0.283315 0.269155 0.31283 0.263884 0.282891 0.3559 0.414409 0.322742 
0.424117 0.404082 0.303609 0.271491 0.383912 0.30865 0.308633 0.20506 0.254022 
0.451524 0.37507 0.428376 0.378393 0.489228 0.475534 0.500139 0.477242 0.473635 
0.454959 0.457248 0.427943 0.426279 0.449183 0.408782 0.437464 0.406265 0.473242 
0.46646 0.392662 0.391386 0.393456 0.41282 0.390344 0.347189 0.305753 0.34852 
0.344398 0.346653 0.358227 0.373811 0.370766 0.352559 0.36979 0.38588 0.388069 
0.409104 0.36993 0.359104 0.388484 0.416077 0.436483 0.432095 0.432719 0.426091 
0.44534 0.44219 0.407167 0.376363 0.404017 0.45703 0.451831 0.437076 0.434001 
0.424895 0.425785 0.424294 0.434298 0.427174 0.451394 0.450677 0.44916 0.444976 
0.41007 0.451692 0.404005 0.43886 0.441889 0.442334 0.383405 0.444167 0.447252 
0.458651 0.479455 0.487505 0.410108 0.44111 0.378834 0.383355 0.399231 0.406875 
0.438106 0.274966 0.262003 0.286614 0.335455 0.252097 0.402241 0.376434 0.339559 
0.406649 0.252193 0.386922 0.380143 0.406937 0.414485 0.422621 0.417535 0.425443 
0.424201 0.422108 0.428647 0.422109 0.425428 0.430804 0.431498 0.439338 0.419179 
0.41744 0.414832 0.416238 0.414825 0.476858 0.450779 0.417369 0.42366 0.433651 
0.550706 0.431808 0.43216 0.446689 0.475907 0.480742 0.475665 0.27796 0.248114 
0.639895 0.447465 0.417837 0.420756 0.421718 0.418798 0.333578 0.425815 0.396899 
0.429117 0.145655 0.373124 0.441532 0.423765 0.416591 0.434799 0.439772 0.509601 
0.507585 0.508432 0.508844 0.379954 0.374552 0.372766 0.362785 0.37221 0.388454 
0.382137 0.446649 0.419093 0.586771 0.441639 0.453658 0.418669 0.504961 0.505285 
0.506251 0.504018 0.49988 0.367643 0.247237 0.425704 0.424802 0.421934 0.428056 
0.534726 0.424575 0.384195 0.407155 0.380972 0.381253 0.161197 0.167825 0.177163 
0.174587 0.421633 0.380667 0.15518 0.363909 0.352747 0.260009 0.39513 0.394192 
0.351 0.382658 0.347664 0.362885 0.368014 0.375504 0.406369 0.358343 0.38806 
0.385936 0.389809 0.377379 0.365095 0.430249 0.429871 0.430688 0.422949 0.429188 
0.42805 0.429273 0.431499 0.431391 0.425779 0.431517 0.45843 0.457407 0.461237 
0.465819 0.482308 0.461527 0.478215 0.481131 0.480572 0.47996 0.42372 0.423789 
0.423101 0.422634 0.418691 0.43342 0.424197 0.426951 0.370176 0.371642 0.429438 
0.440402 0.421724 0.417882 0.405984 0.425569 0.419123 0.429999 0.423293 0.41453 
0.40793 0.407522 0.408543 0.412166 0.421201 0.426887 0.188051 0.190354 0.186124 
0.185383 0.413283 0.403575 0.411186 0.409284 0.413446 0.280741 0.38825 0.396829 
0.403928 0.42024 0.425434 0.418934 0.413725 0.413215 0.356319 0.422281 0.414786 
0.401505 0.429366 0.459228 0.447658 0.516735 0.273324 0.26262 0.251735 0.250619 
0.357594 0.397115 0.38386 0.412357 0.400787 0.424888 0.41788 0.399893 0.423402 
0.425255 0.42378 0.346725 0.359284 0.387781 0.390683 0.388298 0.395205 0.390255 
0.390576 0.390514 0.390491 0.395127 0.375708 0.380933 0.379123 0.374407 0.400958 
0.405221 0.422494 0.419674 0.418135 0.415491 0.413949 0.418865 0.406816 0.408006 
0.412708 0.404786 0.408309 0.409557 0.376195 0.246568 0.393811 0.372606 0.38057 
0.460031 0.428297 0.496125 0.431467 0.43847 0.336855 0.434456 0.360656 0.362954 
0.39197 0.363668 0.38974 0.381342 0.400535 0.382648 0.378739 0.414391 0.403323 
0.374875 0.381202 0.399052 0.437451 0.442156 0.435355 0.425899 0.42974 0.437549 
0.427287 0.47447 0.487623 0.281133 0.48256 0.456161 0.435799 0.425495 0.405937 
0.44925 0.419841 0.417326 0.426269 0.426526 0.426682 0.428622 0.426791 0.426442 
0.427592 0.422933 0.425613 0.422916 0.403864 0.395918 0.386321 0.403502 0.427563 
0.379586 0.470462 0.475657 0.459558 0.461329 0.363255 0.39713 0.412954 0.36945 
0.450764 0.445914 0.465113 0.394428 0.384539 0.377905 0.463753 0.46097 0.459991 
0.458093 0.451672 0.363684 0.360463 0.386974 0.345913 0.247091 0.42925 0.453704 
0.461003 0.462938 0.478461 0.452307 0.43869 0.442411 0.433743 0.454992 0.505136 
0.502641 0.505295 0.503584 0.502852 0.505137 0.504394 0.407312 0.422705 0.421388 
0.415106 0.422647 0.410543 0.425163 0.410903 0.419979 0.442828 0.438372 0.439761 
0.441394 0.442783 0.500647 0.495645 0.479316 0.49601 0.492293 0.4907 0.419565 
0.463525 0.461911 0.427181 0.388374 0.447101 0.429635 0.43838 0.438526 0.446839 
0.454975 0.438125 0.470792 0.474686 0.503529 0.50368 0.495926 0.492997 0.493429 
0.493612 0.499134 0.308568 0.400008 0.382973 0.422391 0.366489 0.364978 0.387845 
0.444519 0.355684 0.340409 0.337433 0.403895 0.393196 0.483655 0.394469 0.40638 
0.397548 0.39169 0.193492 0.201198 0.20156 0.192029 0.204718 0.446999 0.441903 
0.443722 0.442515 0.441353 0.437015 0.436485 0.434598 0.383559 0.578876 0.400377 
0.3709 0.381429 0.391878 0.376573 0.379321 0.424351 0.443431 0.427279 0.36754 
0.423205 0.361404 0.486696 0.458662 0.466553 0.471664 0.450664 0.463577 0.416603 
0.399152 0.455566 0.428862 0.421916 0.454341 0.385636 0.380003 0.506905 0.37191 
0.383493 0.385569 0.390716 0.476403 0.478108 0.470646 0.459299 0.490215 0.4923 
0.469359 0.452131 0.477259 0.537252 0.408041 0.450849 0.450523 0.368623 0.418212 
0.412726 0.502556 0.507459 0.507668 0.505299 0.50421 0.50179 0.505362 0.502233 
0.305448 0.414924 0.230443 0.29731 0.254116 0.319902 0.235521 0.37077 0.271894 
0.487081 0.493775 0.465385 0.481195 0.473818 0.477617 0.423496 0.468598 0.470057 
0.471302 0.394402 0.315748 0.324015 0.424327 0.431628 0.325013 0.424097 0.337572 
0.433014 0.464202 0.464899 0.429119 0.489592 0.419241 0.365181 0.367082 0.371131 
0.371849 0.374683 0.367277 0.367939 0.371938 0.403355 0.513578 0.425054 0.405603 
0.528944 0.590602 0.499879 0.496896 0.471387 0.376171 0.371086 0.377385 0.368484 
0.375466 0.372345 0.45743 0.403238 0.426187 0.428985 0.457403 0.478296 0.164941 
0.40509 0.428519 0.411239 0.411679 0.375969 0.36315 0.370903 0.367092 0.377893 
0.382015 0.210622 0.248217 0.282548 0.282552 0.315733 0.298893 0.298889 0.311479 
0.326245 0.471343 0.476495 0.487122 0.493715 0.48151 0.487687 0.483054 0.249562 
0.453351 0.423376 0.444439 0.444318 0.404748 0.3976 0.399808 0.406506 0.413536 
0.442837 0.414811 0.427829 0.160164 0.153189 0.439613 0.461192 0.44125 0.41967 
0.569819 0.453078 0.432016 0.432162 0.43381 0.471775 0.418969 0.410043 0.412982 
0.418094 0.427371 0.393212 0.391789 0.390725 0.365001 0.392855 0.393735 0.388892 
0.374408 0.332109 0.326416 0.366776 0.407581 0.423823 0.384493 0.435373 0.216049 
0.152964 0.169172 0.156931 0.154569 0.173681 0.183391 0.171731 0.157122 0.180197 
0.244323 0.417801 0.441481 0.49535 0.462736 0.490291 0.529448 0.483671 0.439263 
0.477125 0.556248 0.411289 0.42228 0.422525 0.424517 0.424272 0.423322 0.404059 
0.456773 0.385678 0.407406 0.410493 0.474947 0.47561 0.413056 0.469296 0.463307 
0.485016 0.472752 0.490613 0.491334 0.489896 0.425465 0.410265 0.384227 0.422364 
0.391759 0.399098 0.512186 0.527553 0.425812 0.413512 0.418633 0.403218 0.43394 
0.449094 0.426339 0.42855 0.461195 0.461511 0.447936 0.530013 0.42072 0.591337 
0.40212 0.433296 0.433789 0.436599 0.44379 0.436694 0.444219 0.455654 0.533276 
0.501308 0.457057 0.477727 0.480639 0.446574 0.41733 0.493057 0.48851 0.462957 
0.493066 0.478163 0.478653 0.47308 0.454716 0.42886 0.448897 0.3833 0.464137 
0.469142 0.398569 0.388949 0.450705 0.43077 0.39979 0.401068 0.450628 0.476641 
0.463004 0.456026 0.459558 0.438608 0.438826 0.405571 0.386132 0.38914 0.414234 
0.383635 0.465644 0.469126 0.472144 0.474259 0.448966 0.334907 0.379624 0.415329 
0.40365 0.277097 0.410222 0.253649 0.216841 0.214146 0.264584 0.251143 0.26215 
0.305092 0.301477 0.361567 0.377418 0.460181 0.354134 0.43176 0.331131 0.369915 
0.387562 0.330834 0.362772 0.370905 0.370481 0.369731 0.402293 0.466133 0.390902 
0.171823 0.171033 0.167049 0.212607 0.195956 0.222346 0.415129 0.426695 0.474845 
0.393995 0.415254 0.426026 0.431919 0.45338 0.447685 0.431693 0.431595 0.434061 
0.493087 0.469779 0.48697 0.479439 0.491533 0.48075 0.499569 0.498511 0.50335 
0.499787 0.501558 0.437315 0.424017 0.466398 0.358012 0.452918 0.470328 0.452829 
0.453329 0.42434 0.425617 0.501307 0.502226 0.503411 0.508846 0.505585 0.504351 
0.501803 0.249028 0.265926 0.297193 0.267063 0.316921 0.309639 0.444238 0.445446 
0.443587 0.44481 0.462324 0.528945 0.425797 0.448106 0.448182 0.443313 0.359302 
0.388032 0.379404 0.382508 0.379336 0.373251 0.442008 0.42993 0.432769 0.489664 
0.430386 0.434442 0.419399 0.430114 0.39327 0.402138 0.380599 0.368912 0.369081 
0.362013 0.378904 0.486827 0.403935 0.466721 0.441591 0.396465 0.39422 0.407874 
0.432783 0.370842 0.373278 0.366036 0.616375 0.407135 0.573868 0.482506 0.490959 
0.487791 0.212526 0.482749 0.48133 0.382938 0.383545 0.387136 0.358602 0.355274 
0.389447 0.390027 0.380615 0.160533 0.44548 0.432434 0.442891 0.419976 0.410727 
0.501017 0.502855 0.500865 0.499079 0.500668 0.501265 0.503347 0.454177 0.295378 
0.444095 0.435445 0.432139 0.422785 0.38587 0.404493 0.422305 0.405855 0.398485 
0.424823 0.508754 0.368901 0.481572 0.459088 0.465147 0.476366 0.480437 0.465043 
0.490828 0.451345 0.62771 0.579661 0.423648 0.414321 0.425145 0.417008 0.426888 
0.42179 0.397034 0.413834 0.411885 0.413552 0.403956 0.232588 0.236904 0.224672 
0.248552 0.282565 0.282483 0.307587 0.309985 0.205072 0.258682 0.202652 0.194902 
0.210119 0.30576 0.243721 0.454358 0.48855 0.492273 0.460619 0.442017 0.631073 
0.500262 0.500873 0.503002 0.497653 0.399971 0.455549 0.411985 0.397762 0.408753 
0.355941 0.429752 0.467116 0.424863 0.283646 0.452579 0.668663 0.474828 0.402263 
0.451474 0.458277 0.382298 0.429339 0.432849 0.210576 0.402513 0.418124 0.409156 
0.409709 0.440858 0.436718 0.39091 0.422095 0.405911 0.400263 0.405285 0.375831 
0.404941 0.380327 0.386494 0.426351 0.427631 0.426913 0.431615 0.477273 0.468576 
0.505366 0.415274 0.420361 0.417348 0.426252 0.419083 0.466232 0.386537 0.372492 
0.380988 0.381658 0.382699 0.378492 0.377544 0.428982 0.50836 0.430842 0.508353 
0.424946 0.437369 0.454835 0.490144 0.483457 0.480976 0.468524 0.42329 0.428876 
0.439123 0.439251 0.420893 0.41973 0.416923 0.418086 0.426404 0.619539 0.426476 
0.479138 0.420613 0.448762 0.421404 0.456582 0.432011 0.426115 0.422476 0.443178 
0.449185 0.5089 0.423514 0.439707 0.423678 0.438584 0.237588 0.25578 0.225199 
0.22821 0.22806 0.251176 0.20628 0.298748 0.501454 0.503576 0.498153 0.496636 
0.490679 0.490116 0.472325 0.491596 0.412157 0.398069 0.438971 0.382577 0.39904 
0.413346 0.383322 0.399932 0.388883 0.367539 0.371614 0.409451 0.13982 0.165798 
0.16626 0.174142 0.422129 0.430592 0.436173 0.394497 0.421346 0.434122 0.434061 
0.450372 0.443039 0.424164 0.5707 0.607182 0.427702 0.449023 0.452888 0.37936 
0.359848 0.364331 0.394275 0.399885 0.373035 0.397152 0.379777 0.37078 0.357326 
0.362537 0.362231 0.35934 0.360627 0.411614 0.381549 0.394691 0.407135 0.656287 
0.388767 0.379562 0.377546 0.37238 0.370629 0.489086 0.495083 0.492007 0.494749 
0.492003 0.427829 0.429113 0.428475 0.431113 0.424348 0.207686 0.458122 0.457929 
0.457032 0.455028 0.456118 0.546286 0.444053 0.508893 0.394476 0.414082 0.358851 
0.356238 0.435526 0.408578 0.365016 0.409657 0.435714 0.458433 0.384742 0.392821 
0.500353 0.440328 0.468343 0.437591 0.465606 0.241752 0.339023 0.258101 0.330117 
0.314349 0.151372 0.41094 0.145202 0.408034 0.404305 0.402981 0.395433 0.365099 
0.408416 0.416629 0.425614 0.381257 0.421601 0.421407 0.436145 0.43068 0.374646 
0.150919 0.421994 0.431133 0.42404 0.359618 0.374809 0.383038 0.375553 0.367785 
0.366439 0.624057 0.509134 0.435734 0.452449 0.430817 0.390171 0.447095 0.289894 
0.275772 0.331415 0.301678 0.316677 0.288122 0.312761 0.363123 0.366295 0.372206 
0.369034 0.415381 0.3766 0.226784 0.426091 0.424254 0.430477 0.434502 0.424759 
0.399227 0.424577 0.489946 0.444327 0.379537 0.447447 0.394013 0.431577 0.254609 
0.248186 0.310783 0.460303 0.411213 0.417175 0.412417 0.411776 0.469148 0.462677 
0.462409 0.425273 0.447529 0.476686 0.479706 0.58058 0.579123 0.299198 0.210898 
0.374564 0.374837 0.304031 0.356305 0.317113 0.261023 0.406069 0.365886 0.335956 
0.274994 0.26146 0.36213 0.409332 0.452852 0.429283 0.426992 0.461914 0.424234 
0.48662 0.424287 0.502396 0.504968 0.503936 0.50411 0.420214 0.421834 0.418378 
0.422 0.421605 0.423692 0.426409 0.431948 0.411408 0.402018 0.400425 0.384627 
0.384114 0.392942 0.390763 0.48471 0.51301 0.491524 0.435734 0.397526 0.421472 
0.354735 0.376427 0.354694 0.366467 0.353383 0.34161 0.46196 0.283064 0.542943 
0.573095 0.498425 0.520551 0.497034 0.621368 0.428924 0.418785 0.560557 0.515708 
0.642981 0.444801 0.446654 0.42862 0.418305 0.451635 0.562596 0.456159 0.45667 
0.448133 0.446773 0.401534 0.408309 0.423421 0.426028 0.376697 0.37021 0.380676 
0.287732 0.325288 0.312616 0.241029 0.372434 0.360477 0.362437 0.411526 0.509948 
0.387778 0.36705 0.307267 0.333179 0.351632 0.395683 0.190538 0.280469 0.506145 
0.504471 0.504844 0.505663 0.505274 0.505784 0.435051 0.425457 0.445666 0.426626 
0.465588 0.486766 0.414856 0.436702 0.424893 0.430099 0.446493 0.415702 0.414666 
0.426649 0.425204 0.420057 0.431653 0.451439 0.423783 0.419852 0.419845 0.41912 
0.592707 0.419103 0.395141 0.394627 0.378578 0.371158 0.418131 0.40052 0.433171 
0.44929 0.452204 0.26797 0.220055 0.260467 0.249017 0.262064 0.273515 0.499742 
0.499212 0.496861 0.570759 0.461166 0.396015 0.383405 0.412463 0.398896 0.329852 
0.34791 0.326211 0.341112 0.379067 0.333598 0.460565 0.453244 0.457759 0.449888 
0.449737 0.442266 0.435387 0.377563 0.405134 0.423284 0.464624 0.370928 0.437361 
0.442408 0.426987 0.418506 0.416713 0.558544 0.525515 0.558337 0.56238 0.485827 
0.533752 0.498083 0.496058 0.495689 0.476678 0.363691 0.367017 0.410497 0.38178 
0.326761 0.322721 0.422946 0.320955 0.417991 0.426552 0.581985 0.554839 0.574228 
0.416771 0.380055 0.351442 0.341309 0.355496 0.375893 0.427673 0.381786 0.454297 
0.471734 0.446625 0.350735 0.387 0.432154 0.684513 0.466475 0.636548 0.398105 
0.406781 0.4374 0.414222 0.415366 0.43318 0.431208 0.434333 0.425408 0.43402 
0.41212 0.427728 0.45887 0.481739 0.424805 0.450597 0.421673 0.498451 0.380929 
0.259647 0.287777 0.306912 0.149943 0.423009 0.158096 0.161889 0.427722 0.420125 
0.34859 0.382896 0.386303 0.372342 0.37708 0.38295 0.490768 0.477719 0.484248 
0.481154 0.421248 0.491928 0.310683 0.422046 0.428196 0.208295 0.177146 0.257656 
0.192237 0.178967 0.420829 0.409588 0.514807 0.387502 0.383707 0.422982 0.391684 
0.493606 0.489342 0.495285 0.489157 0.496343 0.386969 0.489752 0.478204 0.476486 
0.497648 0.387764 0.411246 0.392341 0.359398 0.361111 0.390946 0.369302 0.45293 
0.420257 0.44414 0.419891 0.404056 0.290809 0.303895 0.642473 0.495847 0.499153 
0.477752 0.4765 0.48423 0.483833 0.3221 0.309731 0.386043 0.259424 0.319217 
0.341153 0.191157 0.250268 0.223411 0.181475 0.245633 0.253754 0.225817 0.496702 
0.190808 0.215636 0.491035 0.243357 0.239489 0.247667 0.437865 0.441293 0.442993 
0.388068 0.205057 0.43163 0.446272 0.44046 0.440247 0.446457 0.524142 0.437622 
0.439048 0.442648 0.448444 0.443345 0.40767 0.648763 0.415614 0.415834 0.410804 
0.419515 0.39296 0.411333 0.481738 0.455248 0.5067 0.480653 0.461099 0.475408 
0.283826 0.381656 0.377058 0.400698 0.382455 0.387094 0.218854 0.367563 0.47275 
0.482316 0.481369 0.475292 0.565796 0.580495 0.57049 0.428223 0.405181 0.441421 
0.451165 0.494561 0.497957 0.515328 0.608126 0.554282 0.638341 0.584496 0.690707 
0.388133 0.315762 0.370773 0.382582 0.382763 0.287244 0.282663 0.286051 0.278378 
0.244844 0.260501 0.171542 0.175379 0.163088 0.172771 0.151471 0.151405 0.162407 
0.627147 0.421344 0.422272 0.424313 0.565962 0.421776 0.423738 0.380187 0.384475 
0.387428 0.391716 0.387256 0.388047 0.551134 0.578773 0.572685 0.566634 0.590213 
0.577911 0.357737 0.384604 0.387506 0.386138 0.379008 0.378343 0.393687 0.384244 
0.49403 0.48257 0.484684 0.480632 0.482746 0.442986 0.472628 0.453982 0.466906 
0.471491 0.212377 0.621882 0.461426 0.229352 0.2591 0.207689 0.20015 0.189696 
0.197235 0.451102 0.43077 0.429548 0.428445 0.424535 0.425679 0.42681 0.43333 
0.415866 0.444996 0.415387 0.419706 0.413463 0.453517 0.544059 0.422777 0.428717 
0.417823 0.481313 0.477368 0.473531 0.581456 0.622883 0.553854 0.38723 0.538258 
0.56323 0.489887 0.487305 0.487917 0.491552 0.489719 0.490784 0.487741 0.493675 
0.489125 0.493552 0.468593 0.476738 0.428087 0.411692 0.413297 0.406327 0.405419 
0.340641 0.459023 0.397214 0.395024 0.404117 0.388898 0.393071 0.377777 0.411384 
0.416986 0.349639 0.356027 0.588862 0.389279 0.381457 0.362174 0.375335 0.389935 
0.410964 0.410814 0.397928 0.377342 0.422942 0.433693 0.4271 0.436339 0.422935 
0.468625 0.431753 0.425296 0.422363 0.414964 0.616906 0.413895 0.495206 0.460313 
0.470006 0.457648 0.460402 0.375034 0.470082 0.362688 0.374753 0.35023 0.36419 
0.503903 0.188153 0.19094 0.20006 0.187948 0.181545 0.188118 0.180574 0.181556 
0.426013 0.460387 0.431131 0.417436 0.340477 0.462831 0.480208 0.230648 0.225604 
0.229929 0.240765 0.427469 0.44641 0.429325 0.453547 0.439837 0.376518 0.200818 
0.20372 0.225915 0.464468 0.14462 0.456003 0.204209 0.444284 0.461245 0.389097 
0.457381 0.430477 0.432183 0.568759 0.417518 0.38212 0.396078 0.409866 0.441651 
0.41831 0.57684 0.417696 0.410103 0.433853 0.410096 0.449602 0.435519 0.401508 
0.445447 0.4201 0.455126 0.445488 0.508622 0.549253 0.431964 0.435971 0.43658 
0.481395 0.481088 0.482754 0.482742 0.484408 0.430543 0.326059 0.493642 0.495262 
0.494545 0.48601 0.482471 0.464578 0.480743 0.477205 0.446552 0.510074 0.405392 
0.401254 0.150774 0.527582 0.445692 0.416292 0.390359 0.549855 0.696161 0.403682 
0.404988 0.440632 0.380032 0.406436 0.440719 0.423376 0.387709 0.395076 0.411923 
0.406511 0.273364 0.2925 0.244039 0.326266 0.313125 0.28891 0.300007 0.373666 
0.507632 0.372639 0.406706 0.557709 0.537823 0.554691 0.4347 0.454196 0.394212 
0.39193 0.387207 0.390014 0.388163 0.403411 0.39048 0.46573 0.450931 0.454138 
0.337047 0.65986 0.57463 0.328862 0.278237 0.224679 0.255263 0.24952 0.24574 
0.262311 0.228763 0.228761 0.472864 0.494869 0.496547 0.493679 0.49085 0.422356 
0.413717 0.414897 0.426696 0.453576 0.422637 0.44411 0.428155 0.47258 0.372002 
0.380021 0.419914 0.256137 0.413063 0.452469 0.496584 0.487543 0.61427 0.480582 
0.452365 0.47597 0.398138 0.383806 0.387338 0.398155 0.451164 0.473581 0.47182 
0.474228 0.483955 0.452631 0.328086 0.345565 0.338518 0.30738 0.167575 0.210044 
0.218199 0.234852 0.353369 0.217592 0.266022 0.233456 0.220405 0.267702 0.309866 
0.491992 0.39148 0.395835 0.38811 0.39999 0.45673 0.393848 0.397363 0.236872 
0.239246 0.261239 0.242003 0.252575 0.236055 0.251894 0.510718 0.357743 0.378551 
0.402337 0.416569 0.424892 0.448649 0.29706 0.306702 0.403318 0.410505 0.426703 
0.413674 0.40521 0.408364 0.223308 0.28144 0.239036 0.278125 0.301805 0.418822 
0.320368 0.217847 0.292351 0.215652 0.278688 0.319922 0.381332 0.38606 0.320837 
0.432152 0.430808 0.429451 0.43047 0.383578 0.388319 0.390289 0.384328 0.393056 
0.3961 0.366523 0.404952 0.388539 0.40076 0.394878 0.40745 0.406641 0.399207 
0.409059 0.393065 0.402635 0.377787 0.38763 0.259457 0.382993 0.372687 0.374745 
0.372395 0.384189 0.37936 0.38108 0.421693 0.419515 0.521941 0.414694 0.493108 
0.428586 0.475248 0.479369 0.454141 0.239893 0.426483 0.479037 0.480238 0.457134 
0.456187 0.447517 0.500268 0.495169 0.499514 0.423814 0.394104 0.396443 0.37754 
0.392537 0.381983 0.389762 0.397413 0.420884 0.142502 0.492794 0.495048 0.48768 
0.523931 0.477056 0.515187 0.413514 0.413718 0.410306 0.430216 0.421516 0.421192 
0.426047 0.42598 0.42196 0.423362 0.4235 0.422687 0.345314 0.429742 0.300831 
0.647223 0.395744 0.400029 0.460318 0.366742 0.444 0.395725 0.477633 0.47656 
0.428884 0.462916 0.47565 0.180346 0.462024 0.171253 0.173673 0.363397 0.477735 
0.457946 0.459292 0.412426 0.411745 0.411855 0.412038 0.383342 0.553392 0.424338 
0.39829 0.383586 0.579373 0.33026 0.403305 0.392684 0.404506 0.400777 0.446624 
0.419582 0.404003 0.375153 0.381307 0.376519 0.372603 0.371237 0.4812 0.475246 
0.469699 0.489786 0.475023 0.491415 0.431969 0.39605 0.432037 0.416269 0.387065 
0.388678 0.424084 0.423171 0.424637 0.421828 0.421616 0.197102 0.172253 0.253976 
0.281492 0.173467 0.188 0.391648 0.380473 0.377674 0.380871 0.38121 0.507885 
0.508258 0.398123 0.413121 0.399192 0.424909 0.569445 0.41775 0.426449 0.419895 
0.428721 0.504055 0.504522 0.503002 0.503073 0.506206 0.429403 0.4142 0.430795 
0.464295 0.452922 0.445177 0.409451 0.706419 0.702021 0.679029 0.4104 0.387642 
0.499083 0.43196 0.430619 0.602162 0.369231 0.365794 0.36397 0.497871 0.494378 
0.390658 0.492011 0.389511 0.387809 0.548776 0.161622 0.183073 0.381885 0.391317 
0.18665 0.401841 0.390759 0.448093 0.439274 0.395915 0.405467 0.431234 0.438596 
0.348777 0.4478 0.359098 0.571745 0.374998 0.400817 0.405846 0.400513 0.444345 
0.424969 0.49895 0.497742 0.499558 0.488645 0.485972 0.488362 0.485689 0.487566 
0.484695 0.488661 0.366003 0.49672 0.498776 0.495058 0.495756 0.39461 0.398551 
0.394757 0.398699 0.501125 0.504259 0.491526 0.485583 0.501046 0.503252 0.500909 
0.500008 0.498188 0.364214 0.366767 0.379658 0.362571 0.370308 0.378097 0.390279 
0.425166 0.410482 0.425519 0.398481 0.403943 0.491164 0.522848 0.478316 0.492942 
0.469878 0.425741 0.428621 0.430778 0.421196 0.421807 0.276255 0.232946 0.300818 
0.230169 0.266884 0.609463 0.266618 0.219597 0.19679 0.504418 0.502605 0.504055 
0.50233 0.50384 0.505751 0.502635 0.510264 0.55431 0.424436 0.445923 0.432373 
0.437264 0.37728 0.362953 0.327865 0.232371 0.427238 0.390724 0.527201 0.535897 
0.424619 0.40624 0.403834 0.508387 0.508073 0.189351 0.197079 0.211833 0.199546 
0.189797 0.248975 0.176621 0.184088 0.415958 0.419933 0.419292 0.420322 0.435126 
0.438348 0.142373 0.451016 0.426314 0.406647 0.170331 0.166566 0.404446 0.475646 
0.477527 0.478064 0.476705 0.47421 0.476625 0.478694 0.556103 0.548885 0.536229 
0.580097 0.521894 0.562183 0.556641 0.414846 0.388021 0.378981 0.322143 0.406683 
0.379338 0.365256 0.366547 0.385021 0.410093 0.395534 0.567918 0.423479 0.420131 
0.389513 0.414156 0.415916 0.223868 0.210025 0.219131 0.345338 0.236424 0.332775 
0.378604 0.409409 0.249552 0.421013 0.391793 0.39469 0.37187 0.508158 0.434419 
0.448539 0.433181 0.457469 0.456335 0.391469 0.42264 0.39548 0.389771 0.42178 
0.405224 0.433156 0.410225 0.461915 0.428649 0.414569 0.389111 0.223599 0.382901 
0.323746 0.384293 0.302408 0.346066 0.206555 0.403219 0.41627 0.222355 0.379355 
0.407188 0.375984 0.399374 0.379354 0.374403 0.373758 0.362644 0.369364 0.363814 
0.360032 0.392655 0.416866 0.476164 0.420716 0.456713 0.443493 0.403054 0.409266 
0.449749 0.435506 0.41744 0.368118 0.417566 0.430046 0.422179 0.464704 0.451797 
0.470131 0.472179 0.565414 0.461787 0.468662 0.462455 0.475939 0.474777 0.241339 
0.252055 0.355654 0.244801 0.369494 0.206591 0.221381 0.206046 0.205574 0.372873 
0.382024 0.369145 0.380177 0.383827 0.21815 0.248794 0.166597 0.214825 0.199461 
0.224973 0.557697 0.402201 0.413515 0.409715 0.409397 0.41898 0.586518 0.430292 
0.594898 0.567542 0.480689 0.411369 0.402484 0.405171 0.551993 0.338843 0.288522 
0.324946 0.31466 0.226717 0.231432 0.422397 0.42312 0.427137 0.426149 0.425859 
0.427068 0.142305 0.424995 0.575331 0.43837 0.357053 0.418615 0.597779 0.542984 
0.525745 0.384578 0.370974 0.212403 0.231865 0.266625 0.360437 0.475982 0.479383 
0.491367 0.263511 0.281404 0.285645 0.272834 0.253137 0.209042 0.472833 0.421633 
0.461998 0.471665 0.368016 0.374841 0.3757 0.162364 0.15759 0.600402 0.519869 
0.436227 0.46674 0.467643 0.54269 0.577779 0.394934 0.399564 0.397362 0.395699 
0.4049 0.555128 0.158622 0.406542 0.424365 0.49367 0.46344 0.478928 0.470575 
0.470532 0.462179 0.583385 0.504593 0.483165 0.449548 0.448743 0.447333 0.446528 
0.245712 0.261995 0.300511 0.286351 0.323476 0.396089 0.359621 0.395203 0.393853 
0.393445 0.406859 0.407437 0.390176 0.424321 0.376817 0.378915 0.353974 0.518974 
0.3889 0.399334 0.398776 0.38181 0.402889 0.38678 0.304913 0.228438 0.346088 
0.299184 0.33032 0.31222 0.558578 0.563627 0.50009 0.552426 0.237785 0.43767 
0.348378 0.240059 0.247591 0.2574 0.362047 0.37396 0.353723 0.273483 0.363102 
0.274118 0.324673 0.310426 0.304145 0.404442 0.39866 0.398169 0.399691 0.420372 
0.428332 0.545726 0.425024 0.422415 0.526356 0.459427 0.431307 0.443461 0.481792 
0.488373 0.483972 0.49087 0.489241 0.48484 0.590037 0.588176 0.621773 0.575339 
0.360587 0.363618 0.378775 0.402478 0.385685 0.384982 0.41266 0.377263 0.508019 
0.392186 0.393703 0.381103 0.379576 0.425604 0.425245 0.3647 0.368242 0.361415 
0.424678 0.38687 0.417334 0.418396 0.373857 0.535682 0.41377 0.382938 0.656857 
0.446816 0.392643 0.484861 0.501642 0.438136 0.441279 0.438316 0.435174 0.431742 
0.431732 0.402832 0.395965 0.39614 0.41376 0.418792 0.497048 0.423843 0.417992 
0.403696 0.385864 0.328518 0.386859 0.422967 0.414865 0.40334 0.405066 0.45114 
0.455528 0.471415 0.383156 0.551754 0.40073 0.443763 0.382045 0.517248 0.50622 
0.261287 0.505459 0.506412 0.506359 0.189573 0.584656 0.62637 0.189685 0.198031 
0.309582 0.193488 0.235718 0.409759 0.469599 0.471602 0.474564 0.49256 0.422606 
0.389392 0.45858 0.137528 0.388367 0.412816 0.411983 0.244202 0.140188 0.520534 
0.338341 0.400424 0.387617 0.517843 0.364009 0.391431 0.510128 0.424693 0.151009 
0.154278 0.547161 0.421372 0.419697 0.419701 0.341318 0.313126 0.334597 0.290454 
0.274653 0.439894 0.402684 0.435431 0.429156 0.319032 0.283895 0.349591 0.340493 
0.382306 0.426746 0.414868 0.407439 0.396765 0.406193 0.386423 0.377671 0.471863 
0.468517 0.460623 0.36082 0.50694 0.508441 0.508057 0.175632 0.169015 0.179604 
0.45147 0.450701 0.23991 0.222133 0.620678 0.155674 0.230612 0.488414 0.391489 
0.380187 0.426758 0.37484 0.406014 0.406604 0.368215 0.440847 0.370764 0.383751 
0.448339 0.445709 0.464607 0.461406 0.598892 0.458676 0.547709 0.397323 0.478465 
0.455115 0.402908 0.383259 0.353852 0.396044 0.417887 0.424267 0.478052 0.381033 
0.582768 0.432415 0.428699 0.417097 0.422857 0.421023 0.72618 0.688655 0.446265 
0.448675 0.180926 0.454285 0.427137 0.429143 0.472041 0.484811 0.480317 0.236346 
0.241997 0.22963 0.244743 0.506889 0.504451 0.506518 0.505259 0.506013 0.504754 
0.384085 0.381708 0.383809 0.434988 0.591182 0.430514 0.192146 0.469682 0.471557 
0.443133 0.477993 0.431992 0.243468 0.481446 0.478109 0.617399 0.428248 0.464823 
0.445911 0.506209 0.505367 0.504852 0.50181 0.500509 0.504451 0.504511 0.271837 
0.294562 0.280052 0.264783 0.321008 0.331894 0.473911 0.525592 0.523292 0.538826 
0.576813 0.647064 0.469603 0.426271 0.550776 0.546298 0.675746 0.654341 0.573167 
0.505441 0.646691 0.752126 0.707667 0.433869 0.429116 0.439015 0.455345 0.456305 
0.535922 0.430725 0.430456 0.557321 0.419624 0.378127 0.135004 0.393725 0.41834 
0.13615 0.432257 0.443485 0.445761 0.470446 0.481588 0.466246 0.466216 0.156057 
0.369432 0.419575 0.148643 0.146079 0.628788 0.420442 0.430581 0.390139 0.397846 
0.400327 0.135209 0.42193 0.406511 0.441598 0.404653 0.292125 0.289803 0.319886 
0.333623 0.302562 0.46302 0.488083 0.483967 0.581471 0.475175 0.472701 0.457169 
0.473109 0.466448 0.459766 0.471051 0.467766 0.249186 0.263985 0.254817 0.279778 
0.361525 0.370731 0.363938 0.369185 0.367158 0.36922 0.370961 0.373023 0.387244 
0.494063 0.524851 0.425328 0.398161 0.398903 0.406366 0.44652 0.152565 0.466145 
0.29781 0.461614 0.474715 0.231847 0.229899 0.381643 0.223704 0.219911 0.223185 
0.377971 0.381047 0.393709 0.414033 0.387211 0.372255 0.391184 0.387701 0.389213 
0.392657 0.392226 0.397528 0.393153 0.391096 0.426898 0.425313 0.386409 0.372215 
0.376917 0.370673 0.495355 0.493047 0.49057 0.494824 0.496098 0.499296 0.498844 
0.544124 0.391583 0.510599 0.389393 0.414426 0.417154 0.403816 0.420488 0.415069 
0.431741 0.293498 0.306336 0.349553 0.275205 0.581025 0.548957 0.433777 0.432627 
0.43359 0.433175 0.432869 0.397729 0.393492 0.570067 0.398079 0.417206 0.467514 
0.419231 0.47672 0.483508 0.481143 0.425173 0.492314 0.473373 0.467897 0.465755 
0.472553 0.469511 0.261593 0.251162 0.243029 0.508341 0.462666 0.464647 0.466605 
0.473329 0.446406 0.392759 0.413835 0.409283 0.365451 0.369387 0.370867 0.369882 
0.413086 0.411419 0.394847 0.394218 0.393356 0.419602 0.384382 0.201198 0.300242 
0.23412 0.438695 0.436425 0.439126 0.435592 0.432891 0.380944 0.380461 0.393906 
0.451142 0.544696 0.257627 0.278275 0.213001 0.207956 0.230643 0.229196 0.543607 
0.491988 0.498715 0.476055 0.497905 0.463316 0.490133 0.508718 0.319168 0.344816 
0.407349 0.299788 0.598997 0.369766 0.339391 0.249847 0.383838 0.188255 0.21232 
0.197235 0.344328 0.279288 0.267781 0.24506 0.256567 0.438788 0.420059 0.486952 
0.477133 0.497655 0.478608 0.377914 0.376974 0.567307 0.440424 0.464026 0.57264 
0.422246 0.533841 0.381622 0.349407 0.2255 0.235453 0.244339 0.297679 0.604523 
0.430936 0.410025 0.360452 0.41139 0.408442 0.39772 0.401513 0.398389 0.402182 
0.430537 0.416124 0.301756 0.357742 0.306441 0.161546 0.433923 0.416856 0.404873 
0.383918 0.378787 0.422451 0.506896 0.363972 0.384875 0.372381 0.353879 0.416427 
0.308724 0.326318 0.352876 0.422004 0.381955 0.395688 0.397676 0.362986 0.413048 
0.438577 0.416715 0.154514 0.463233 0.53158 0.378317 0.567175 0.425295 0.452151 
0.428762 0.425047 0.432555 0.432977 0.430451 0.41671 0.440493 0.424441 0.582185 
0.457389 0.456701 0.458461 0.594694 0.36133 0.6311 0.441352 0.489757 0.465213 
0.491326 0.484797 0.459072 0.142093 0.496175 0.39989 0.383465 0.397197 0.385651 
0.417198 0.373164 0.586327 0.436083 0.394257 0.384761 0.447396 0.46584 0.442945 
0.399338 0.395688 0.509303 0.47968 0.483259 0.44657 0.469262 0.455077 0.49374 
0.443957 0.175709 0.443793 0.4445 0.430551 0.456069 0.436075 0.430711 0.474915 
0.496357 0.495819 0.497648 0.498186 0.50022 0.419115 0.423806 0.4431 0.42542 
0.615145 0.43174 0.385813 0.413601 0.550397 0.414663 0.422606 0.448271 0.433543 
0.426883 0.439968 0.443546 0.426654 0.432283 0.652737 0.42532 0.442531 0.44106 
0.261105 0.304415 0.509962 0.140144 0.62377 0.58438 0.392541 0.400513 0.392259 
0.384142 0.38946 0.60544 0.453961 0.431614 0.43131 0.422153 0.430534 0.202037 
0.436864 0.374577 0.43745 0.443723 0.295629 0.477951 0.4596 0.435625 0.581873 
0.437951 0.449839 0.443142 0.371167 0.37107 0.434535 0.431212 0.433153 0.428452 
0.429615 0.427108 0.425342 0.42395 0.443053 0.44441 0.661315 0.431058 0.524637 
0.508557 0.472707 0.405469 0.643798 0.380099 0.270846 0.384705 0.385891 0.389596 
0.412917 0.418019 0.431577 0.437572 0.464999 0.459131 0.363527 0.385756 0.41506 
0.411611 0.431026 0.355266 0.326397 0.233988 0.222932 0.169556 0.436673 0.399434 
0.439712 0.433996 0.460417 0.492126 0.386328 0.252023 0.381998 0.388375 0.407415 
0.424967 0.363222 0.404215 0.391005 0.400938 0.393365 0.394218 0.388826 0.469359 
0.478369 0.504887 0.531993 0.47863 0.478829 0.492132 0.490166 0.521988 0.453993 
0.458155 0.45817 0.573383 0.486252 0.370586 0.406287 0.369245 0.382238 0.459309 
0.441166 0.415314 0.41667 0.443492 0.366196 0.440845 0.171393 0.44052 0.455219 
0.465542 0.474174 0.210136 0.428664 0.457976 0.457411 0.492113 0.496332 0.451759 
0.435957 0.420984 0.437316 0.467794 0.470057 0.446172 0.464583 0.466661 0.463059 
0.434118 0.458971 0.474397 0.46911 0.43216 0.439961 0.416842 0.421905 0.402334 
0.397212 0.430361 0.307151 0.383098 0.382502 0.506279 0.506826 0.377536 0.371544 
0.347639 0.39825 0.378153 0.365545 0.510197 0.265108 0.394679 0.453188 0.387671 
0.358391 0.362059 0.373282 0.449259 0.445163 0.154716 0.418428 0.450975 0.392269 
0.390698 0.508915 0.432406 0.50937 0.420753 0.414523 0.1336 0.4067 0.418498 
0.420575 0.473986 0.455451 0.476635 0.373083 0.447852 0.436918 0.46157 0.488354 
0.500858 0.413102 0.392145 0.473893 0.435337 0.349412 0.411219 0.385925 0.377812 
0.41735 0.420114 0.382828 0.414334 0.353059 0.358731 0.419675 0.409685 0.392738 
0.360636 0.390461 0.373378 0.345965 0.377715 0.40308 0.376613 0.509099 0.587845 
0.444036 0.417395 0.433627 0.484184 0.307721 0.46124 0.452768 0.474082 0.369212 
0.362086 0.609297 0.482892 0.459271 0.475687 0.469352 0.480489 0.473272 0.634822 
0.485533 0.416713 0.423518 0.323242 0.308308 0.359695 0.420271 0.432996 0.430614 
0.421517 0.42219 0.452486 0.444164 0.470565 0.444156 0.472973 0.440104 0.488742 
0.36002 0.380481 0.38933 0.418683 0.476469 0.46804 0.445576 0.444483 0.463414 
0.437168 0.44834 0.388108 0.463668 0.397296 0.667467 0.400649 0.452534 0.459051 
0.429315 0.420738 0.394348 0.396046 0.397115 0.388477 0.509698 0.389234 0.381423 
0.604595 0.402851 0.538965 0.559643 0.484685 0.441502 0.436745 0.147953 0.442954 
0.473167 0.465673 0.436826 0.492257 0.489076 0.496288 0.492421 0.480428 0.477152 
0.377584 0.402874 0.386455 0.399692 0.397399 0.366696 0.422266 0.407585 0.557982 
0.510078 0.507602 0.414926 0.426589 0.324389 0.356992 0.346545 0.289602 0.356178 
0.277268 0.291005 0.328274 0.309196 0.223598 0.271794 0.412319 0.365477 0.208301 
0.474383 0.46763 0.468465 0.469469 0.469521 0.465805 0.480194 0.463197 0.5632 
0.146986 0.264725 0.358913 0.246202 0.212548 0.364141 0.305665 0.357266 0.390958 
0.38497 0.351067 0.367892 0.37664 0.378819 0.381845 0.328585 0.235792 0.135349 
0.399667 0.412702 0.400636 0.697854 0.592316 0.700542 0.404613 0.426698 0.417413 
0.566054 0.416157 0.463119 0.424067 0.441593 0.803981 0.44543 0.397851 0.423719 
0.677685 0.620689 0.547269 0.402062 0.401388 0.421453 0.460072 0.449171 0.419869 
0.445668 0.457766 0.468376 0.361227 0.506291 0.457204 0.460356 0.461561 0.442832 
0.460351 0.464981 0.295785 0.436459 0.37409 0.407679 0.407785 0.384238 0.600863 
0.558792 0.44594 0.464371 0.471433 0.469409 0.467315 0.132161 0.434311 0.167741 
0.202036 0.452307 0.167491 0.44135 0.473892 0.449878 0.4715 0.453295 0.456912 
0.394843 0.164339 0.44304 0.37718 0.465599 0.461708 0.197275 0.636863 0.199796 
0.207614 0.212819 0.154066 0.15494 0.458693 0.475925 0.419238 0.492017 0.480856 
0.434668 0.407619 0.435644 0.393712 0.427636 0.405288 0.435565 0.488892 0.522615 
0.47727 0.491325 0.492269 0.486784 0.479034 0.504178 0.492724 0.457412 0.470921 
0.425328 0.42517 0.427196 0.461795 0.472932 0.435115 0.430136 0.429373 0.397573 
0.527504 0.424304 0.460485 0.43771 0.447668 0.584649 0.46787 0.451159 0.588202 
0.428099 0.429376 0.432647 0.427109 0.427299 0.450062 0.448846 0.42651 0.449066 
0.424716 0.452944 0.402228 0.444614 0.429553 0.441926 0.434797 0.403149 0.358966 
0.383421 0.409923 0.354988 0.34366 0.324464 0.367715 0.398209 0.352967 0.34334 
0.309971 0.458749 0.411716 0.424428 0.42616 0.423761 0.468592 0.467547 0.427733 
0.420772 0.420518 0.437452 0.42406 0.418825 0.455207 0.644535 0.551699 0.428577 
0.576975 0.509867 0.425911 0.490065 0.487813 0.424363 0.423868 0.434319 0.426413 
0.427686 0.446223 0.441036 0.529224 0.524787 0.413155 0.419887 0.422572 0.397882 
0.377191 0.226257 0.582413 0.414029 0.371402 0.39967 0.391475 0.455297 0.436312 
0.456975 0.454296 0.446872 0.49165 0.504833 0.483894 0.455976 0.479213 0.446676 
0.449609 0.441611 0.441604 0.604753 0.491863 0.497077 0.490088 0.386189 0.381815 
0.355822 0.369 0.376229 0.382529 0.401157 0.470178 0.480359 0.479062 0.480821 
0.479524 0.405433 0.456339 0.454797 0.457457 0.462895 0.452858 0.456741 0.480998 
0.454177 0.402437 0.358286 0.32129 0.208347 0.256368 0.40121 0.2143 0.367637 
0.322515 0.361438 0.409442 0.430853 0.380897 0.422666 0.381348 0.424617 0.420242 
0.41774 0.417265 0.433418 0.424635 0.433359 0.390782 0.441524 0.44607 0.389375 
0.181634 0.470932 0.447327 0.477854 0.365371 0.386526 0.445818 0.463259 0.368567 
0.364528 0.371224 0.367185 0.383359 0.492372 0.369512 0.365473 0.437781 0.436638 
0.440133 0.417265 0.426709 0.442477 0.437865 0.406865 0.401554 0.40055 0.432768 
0.391018 0.403999 0.386933 0.433261 0.364503 0.370315 0.329536 0.34221 0.389366 
0.383684 0.418556 0.425777 0.414705 0.438027 0.413411 0.400358 0.394005 0.398734 
0.655371 0.402488 0.397719 0.400337 0.400132 0.390688 0.401689 0.398982 0.257387 
0.398351 0.43813 0.327193 0.390771 0.299108 0.291466 0.454149 0.485396 0.439834 
0.463495 0.448974 0.525926 0.471127 0.477939 0.469285 0.465653 0.415975 0.434551 
0.400325 0.369456 0.413595 0.405353 0.424069 0.602314 0.410443 0.546808 0.384984 
0.39299 0.397452 0.441029 0.544522 0.565755 0.593327 0.449229 0.453073 0.430588 
0.442757 0.389994 0.39535 0.417793 0.426399 0.427667 0.410089 0.414692 0.410887 
0.470801 0.432268 0.42921 0.561785 0.397949 0.463006 0.425105 0.439351 0.427251 
0.417876 0.437847 0.42223 0.456713 0.439467 0.596057 0.423623 0.487244 0.476813 
0.456304 0.491806 0.501008 0.480849 0.49628 0.484534 0.501571 0.380114 0.382148 
0.197255 0.425759 0.424423 0.423457 0.490089 0.208482 0.462921 0.464996 0.485593 
0.490286 0.48652 0.549573 0.217524 0.501913 0.445767 0.50795 0.465947 0.470642 
0.436499 0.567261 0.592492 0.429743 0.43663 0.441087 0.149455 0.438254 0.442206 
0.422009 0.666078 0.668766 0.417773 0.429609 0.449999 0.507941 0.583219 0.432252 
0.499152 0.566564 0.387562 0.587625 0.372961 0.604828 0.534332 0.44774 0.365266 
0.379454 0.379146 0.386056 0.396144 0.331202 0.278526 0.229129 0.457193 0.427785 
0.435908 0.425732 0.442216 0.459265 0.45551 0.457759 0.456796 0.457455 0.454464 
0.448695 0.458574 0.463925 0.463621 0.45993 0.42385 0.422542 0.376057 0.674631 
0.502176 0.416425 0.398414 0.399769 0.19953 0.195502 0.39919 0.436651 0.419203 
0.591366 0.365847 0.451539 0.457443 0.477693 0.599987 0.415113 0.465407 0.627272 
0.41183 0.403062 0.401767 0.649635 0.40736 0.453062 0.270877 0.420323 0.432618 
0.414905 0.418841 0.459001 0.398104 0.422904 0.429349 0.469902 0.41937 0.534633 
0.404912 0.508085 0.239763 0.498153 0.495184 0.495173 0.427396 0.433561 0.435241 
0.431284 0.425497 0.483741 0.448662 0.431865 0.455983 0.419049 0.435406 0.453344 
0.454912 0.444427 0.498921 0.417687 0.46211 0.354418 0.404565 0.393147 0.437903 
0.285395 0.453324 0.456309 0.268209 0.257819 0.426059 0.381948 0.435046 0.448491 
0.426954 0.427463 0.429837 0.456474 0.302859 0.39705 0.177732 0.146151 0.683586 
0.508194 0.493545 0.416666 0.427985 0.413 0.416699 0.364084 0.463422 0.491978 
0.468737 0.632013 0.574158 0.44417 0.407679 0.366391 0.363369 0.548009 0.676994 
0.409715 0.634731 0.378892 0.211708 0.200436 0.616715 0.492917 0.48302 0.476791 
0.4029 0.498527 0.499879 0.483426 0.483143 0.645558 0.584722 0.4729 0.579297 
0.469159 0.480041 0.476469 0.404527 0.435619 0.309449 0.449488 0.370949 0.354189 
0.348796 0.344415 0.513075 0.468273 0.452959 0.420229 0.465328 0.483896 0.448056 
0.429487 0.306373 0.295698 0.330669 0.378236 0.440538 0.434049 0.439559 0.432911 
0.463445 0.443011 0.434352 0.391943 0.369062 0.389236 0.36434 0.38233 0.363631 
0.418397 0.19893 0.478892 0.472955 0.468849 0.454277 0.38498 0.427588 0.466889 
0.46389 0.402607 0.385185 0.366125 0.426406 0.439342 0.363271 0.506709 0.363173 
0.36697 0.390605 0.390075 0.390467 0.391829 0.421489 0.524727 0.422103 0.416229 
0.456724 0.416266 0.510271 0.228553 0.414206 0.492081 0.460955 0.461995 0.408127 
0.469025 0.329337 0.38434 0.369064 0.398592 0.398088 0.588045 0.29367 0.56239 
0.410179 0.344335 0.384799 0.325149 0.489645 0.38908 0.385094 0.384953 0.4627 
0.456657 0.623195 0.470851 0.466226 0.582688 0.421226 0.388526 0.354289 0.372713 
0.395493 0.427655 0.509079 0.506837 0.507943 0.507954 0.397509 0.427286 0.350935 
0.420025 0.15934 0.570023 0.439479 0.419381 0.422915 0.414066 0.152069 0.152875 
0.145604 0.25818 0.263842 0.413297 0.39923 0.400087 0.477746 0.475408 0.491034 
0.487267 0.530541 0.52509 0.611639 0.542637 0.600235 0.592636 0.596661 0.666254 
0.589325 0.590862 0.609894 0.378345 0.393168 0.398682 0.385871 0.389086 0.391885 
0.417698 0.151267 0.206064 0.420348 0.415906 0.436328 0.457149 0.448027 0.357386 
0.496554 0.489555 0.498504 0.497455 0.415552 0.476863 0.491511 0.475639 0.547269 
0.521757 0.574418 0.575322 0.607361 0.582093 0.437574 0.427327 0.385676 0.418351 
0.411793 0.409735 0.413371 0.406299 0.410167 0.217149 0.560237 0.206713 0.523461 
0.401019 0.389481 0.394144 0.376545 0.373612 0.391884 0.38703 0.579771 0.420921 
0.421373 0.421709 0.414209 0.363354 0.415234 0.362347 0.588175 0.450434 0.444827 
0.429027 0.449647 0.42484 0.433229 0.424071 0.442674 0.435173 0.421504 0.473574 
0.344286 0.4043 0.396291 0.466312 0.455231 0.402327 0.410603 0.40434 0.44012 
0.440771 0.444015 0.451859 0.651338 0.433658 0.438152 0.361914 0.308452 0.27643 
0.280593 0.356465 0.312547 0.271229 0.396713 0.281818 0.393109 0.393509 0.397109 
0.397508 0.356474 0.671425 0.6238 0.501975 0.506833 0.506804 0.361859 0.381288 
0.324627 0.375368 0.613696 0.285108 0.434586 0.445278 0.424739 0.582627 0.436643 
0.460526 0.455325 0.678599 0.530385 0.338658 0.225464 0.224293 0.237582 0.23641 
0.413703 0.39725 0.537597 0.365699 0.371763 0.42108 0.425568 0.442462 0.408289 
0.419951 0.403561 0.43668 0.361736 0.407832 0.319309 0.382802 0.311916 0.413596 
0.413106 0.50142 0.463702 0.499929 0.260715 0.505156 0.505218 0.567198 0.581078 
0.626984 0.567658 0.64199 0.20052 0.180089 0.429629 0.430545 0.427163 0.441397 
0.434109 0.419311 0.436886 0.430349 0.430893 0.205515 0.655552 0.404639 0.420312 
0.413712 0.419406 0.418131 0.420877 0.381507 0.421069 0.412 0.689209 0.396026 
0.415217 0.374851 0.374118 0.378718 0.374677 0.383653 0.375659 0.379164 0.380149 
0.347508 0.328147 0.347923 0.494117 0.278707 0.228205 0.580076 0.633809 0.570106 
0.60672 0.615646 0.395632 0.434468 0.451391 0.393771 0.393089 0.454337 0.446482 
0.426589 0.571463 0.548933 0.430366 0.502349 0.590449 0.476899 0.492475 0.485418 
0.489395 0.358724 0.567257 0.559604 0.361173 0.535721 0.456714 0.420154 0.473064 
0.465958 0.430125 0.716884 0.447271 0.437802 0.44541 0.447411 0.449056 0.454122 
0.451554 0.423322 0.431319 0.41191 0.44296 0.41094 0.436208 0.427322 0.448004 
0.2307 0.460719 0.299454 0.46425 0.407871 0.507771 0.425786 0.454706 0.464809 
0.449361 0.446081 0.382236 0.442455 0.394088 0.467934 0.376961 0.409689 0.634587 
0.586266 0.516312 0.595337 0.560832 0.631232 0.406451 0.471784 0.468789 0.47195 
0.287776 0.300696 0.507852 0.506807 0.290488 0.351999 0.438509 0.425764 0.428806 
0.625379 0.605868 0.380829 0.626725 0.594499 0.506626 0.615355 0.576561 0.38931 
0.386145 0.547803 0.39137 0.545857 0.595859 0.294358 0.372935 0.590272 0.390195 
0.388097 0.386044 0.244567 0.377037 0.549481 0.373698 0.378369 0.285511 0.32149 
0.507886 0.344478 0.323684 0.547432 0.434972 0.435326 0.418307 0.436248 0.43365 
0.432707 0.427225 0.429272 0.400505 0.386748 0.397426 0.407985 0.423715 0.407032 
0.406491 0.162001 0.405927 0.507128 0.431854 0.428667 0.586001 0.43162 0.405279 
0.16575 0.429189 0.421918 0.490736 0.414228 0.163744 0.439529 0.582703 0.587099 
0.423354 0.372185 0.43912 0.44681 0.486933 0.409124 0.405885 0.419662 0.446539 
0.483322 0.486134 0.480946 0.471583 0.456328 0.444872 0.505882 0.486371 0.484828 
0.401472 0.486512 0.415811 0.416559 0.417662 0.415104 0.412827 0.414637 0.513741 
0.292556 0.301966 0.25155 0.422122 0.465847 0.423269 0.385818 0.38417 0.388146 
0.409178 0.547742 0.443107 0.438308 0.442796 0.445904 0.363717 0.436836 0.446966 
0.508744 0.430615 0.358518 0.31232 0.321895 0.377177 0.365246 0.347957 0.372656 
0.356109 0.374704 0.43501 0.421572 0.202231 0.423664 0.424067 0.424303 0.419264 
0.390342 0.384783 0.383716 0.392713 0.393344 0.379897 0.617499 0.401429 0.426312 
0.413307 0.33825 0.579082 0.331804 0.36389 0.366829 0.477588 0.471405 0.412418 
0.507541 0.451077 0.430375 0.44372 0.440591 0.43186 0.408065 0.449954 0.386611 
0.394346 0.412164 0.412401 0.410969 0.414378 0.374695 0.397627 0.363339 0.376756 
0.37431 0.431354 0.426563 0.441651 0.425919 0.47247 0.451871 0.574849 0.41373 
0.427588 0.393668 0.47037 0.565858 0.458671 0.379497 0.379636 0.376093 0.389365 
0.379577 0.386211 0.36967 0.371086 0.398811 0.506301 0.442913 0.462762 0.444756 
0.454097 0.345705 0.464041 0.393125 0.527377 0.61585 0.395914 0.171485 0.595373 
0.429754 0.198368 0.426879 0.426499 0.436736 0.57367 0.393075 0.599136 0.612343 
0.566197 0.143237 0.14542 0.561517 0.423905 0.422525 0.424586 0.423206 0.370602 
0.374944 0.620418 0.542119 0.44858 0.451046 0.576143 0.446494 0.436104 0.595328 
0.42688 0.380725 0.175271 0.389053 0.377838 0.156526 0.369762 0.65433 0.622836 
0.613679 0.396222 0.391152 0.376433 0.567248 0.377271 0.334533 0.629611 0.334935 
0.424045 0.394039 0.281975 0.28548 0.333897 0.527554 0.50233 0.148588 0.397054 
0.401263 0.394747 0.396205 0.382468 0.403877 0.385502 0.389658 0.373548 0.388964 
0.372364 0.377974 0.373966 0.379085 0.382606 0.389686 0.506269 0.37683 0.371761 
0.393395 0.388305 0.405058 0.395601 0.578246 0.640518 0.632858 0.624144 0.527615 
0.508814 0.377769 0.554191 0.396692 0.402158 0.409623 0.39189 0.432745 0.449608 
0.450304 0.165061 0.410815 0.366308 0.143366 0.372896 0.388478 0.424709 0.422998 
0.422808 0.420605 0.420414 0.417723 0.414898 0.417925 0.417158 0.416214 0.275471 
0.416995 0.137835 0.143808 0.13788 0.398203 0.400662 0.400212 0.398801 0.382278 
0.392299 0.396942 0.388716 0.415082 0.39804 0.381829 0.50374 0.410056 0.319106 
0.503801 0.393919 0.599152 0.649806 0.146114 0.488068 0.35077 0.380421 0.379733 
0.319607 0.184614 0.340355 0.340327 0.509111 0.180302 0.316488 0.435645 0.737711 
0.646242 0.703132 0.66269 0.669661 0.432333 0.332437 0.363908 0.364313 0.367135 
0.362463 0.18598 0.371796 0.425969 0.508458 0.35508 0.421606 0.391506 0.37444 
0.434646 0.427493 0.39139 0.42903 0.430484 0.370352 0.41669 0.421387 0.419739 
0.425425 0.427924 0.467819 0.470526 0.467527 0.362634 0.21377 0.411458 0.422009 
0.402721 0.403476 0.405395 0.386958 0.399506 0.392847 0.334351 0.33262 0.50147 
0.507397 0.507203 0.509678 0.335689 0.477082 0.333958 0.415413 0.422431 0.160647 
0.423342 0.419269 0.139556 0.170984 0.395922 0.404295 0.398423 0.44898 0.455284 
0.434724 0.438552 0.588743 0.450136 0.20893 0.428946 0.360708 0.426452 0.425448 
0.462985 0.465654 0.414259 0.423094 0.196717 0.200989 0.243719 0.290323 0.305538 
0.394031 0.334564 0.607821 0.568978 0.421553 0.403212 0.422694 0.452579 0.450515 
0.422679 0.432206 0.456575 0.359549 0.361399 0.359419 0.625535 0.465948 0.439348 
0.449318 0.503356 0.453168 0.415258 0.440083 0.438551 0.594615 0.424251 0.4388 
0.583992 0.367157 0.144681 0.38911 0.545738 0.462926 0.368894 0.365578 0.494105 
0.252101 0.370246 0.150917 0.144988 0.159714 0.436448 0.38247 0.380633 0.439426 
0.43685 0.435739 0.442448 0.437107 0.386501 0.390315 0.319174 0.306861 0.359364 
0.468801 0.363835 0.463839 0.445024 0.368069 0.37827 0.181667 0.59415 0.568514 
0.529666 0.429923 0.42026 0.430516 0.38881 0.470126 0.432204 0.541048 0.435773 
0.437134 0.439552 0.376263 0.373015 0.374244 0.382786 0.482069 0.481212 0.306076 
0.420677 0.430982 0.480267 0.45387 0.471624 0.480506 0.457573 0.476667 0.437419 
0.36796 0.367281 0.364889 0.419689 0.441433 0.432083 0.439815 0.453931 0.461131 
0.529749 0.401819 0.405325 0.552341 0.227827 0.241659 0.594055 0.156679 0.436923 
0.435321 0.433966 0.438203 0.440364 0.521065 0.518757 0.538669 0.52046 0.583341 
0.532114 0.397674 0.402946 0.428013 0.40116 0.406622 0.545706 0.537014 0.131654 
0.428559 0.141857 0.582281 0.623575 0.61354 0.331233 0.630713 0.43388 0.430153 
0.413185 0.145764 0.418883 0.420298 0.422762 0.441611 0.418596 0.411339 0.422619 
0.1286 0.473305 0.460774 0.174852 0.372914 0.423749 0.496646 0.36675 0.424246 
0.446559 0.445245 0.510739 0.561661 0.508528 0.421204 0.149863 0.375932 0.378207 
0.374973 0.355494 0.369947 0.345419 0.466694 0.366701 0.374668 0.517667 0.519424 
0.35519 0.507631 0.349929 0.444866 0.428074 0.507775 0.429495 0.198538 0.429072 
0.428296 0.194675 0.417552 0.418333 0.420004 0.419223 0.389617 0.253737 0.403927 
0.536676 0.392567 0.429098 0.382304 0.39348 0.403514 0.405141 0.177926 0.386056 
0.366764 0.475715 0.471274 0.408476 0.403121 0.605434 0.415728 0.604691 0.388835 
0.390965 0.391507 0.385858 0.374092 0.593274 0.431058 0.381227 0.387239 0.390533 
0.404784 0.386049 0.429009 0.407128 0.408111 0.415937 0.600444 0.480833 0.368264 
0.455554 0.475151 0.472456 0.14759 0.475973 0.150928 0.447407 0.43521 0.437901 
0.443499 0.435612 0.438627 0.507743 0.441513 0.434785 0.447419 0.444509 0.469232 
0.450097 0.316962 0.371324 0.503417 0.456125 0.427275 0.428629 0.425983 0.41819 
0.416585 0.420322 0.185047 0.504553 0.275241 0.274669 0.264862 0.164152 0.145188 
0.145423 0.448777 0.599121 0.37216 0.13464 0.611421 0.424288 0.625387 0.433874 
0.201266 0.216899 0.213176 0.366873 0.203661 0.366013 0.427369 0.510313 0.593697 
0.587275 0.522701 0.387226 0.388566 0.3884 0.390188 0.491937 0.524684 0.601477 
0.617925 0.44073 0.4408 0.437474 0.397399 0.49386 0.354874 0.344028 0.340959 
0.480695 0.215972 0.483436 0.356517 0.525332 0.377735 0.415395 0.418764 0.464492 
0.185884 0.45941 0.194997 0.46371 0.456069 0.456851 0.132488 0.293879 0.28239 
0.361627 0.358619 0.595592 0.580115 0.610542 0.551044 0.389521 0.386201 0.382097 
0.385417 0.405259 0.47379 0.507897 0.613361 0.497477 0.457519 0.474252 0.360338 
0.397872 0.396678 0.381096 0.419096 0.381502 0.5095 0.505068 0.471176 0.465115 
0.462292 0.446024 0.329477 0.447417 0.466894 0.438404 0.440749 0.421273 0.427294 
0.419853 0.444672 0.440491 0.195834 0.190002 0.593877 0.378307 0.389652 0.389731 
0.379381 0.430375 0.435009 0.359882 0.358875 0.413324 0.158264 0.162253 0.283933 
0.294938 0.335113 0.590335 0.276158 0.143336 0.175654 0.171673 0.584832 0.638281 
0.436925 0.414928 0.537075 0.427047 0.427841 0.426927 0.555666 0.528719 0.404022 
0.429709 0.438308 0.434388 0.467514 0.46715 0.488587 0.418223 0.397844 0.380292 
0.415723 0.314523 0.303129 0.370802 0.170534 0.390855 0.395839 0.389565 0.40763 
0.403878 0.409861 0.406109 0.485688 0.485349 0.48323 0.204216 0.615258 0.631472 
0.570791 0.459585 0.382199 0.587005 0.385899 0.443905 0.502455 0.358213 0.397555 
0.440007 0.503641 0.396975 0.505875 0.394165 0.39472 0.420976 0.452142 0.467274 
0.396438 0.423213 0.410217 0.594568 0.576724 0.392687 0.363155 0.451375 0.413492 
0.43292 0.418717 0.426813 0.508498 0.511308 0.454245 0.451481 0.427721 0.447385 
0.430376 0.445776 0.147957 0.453027 0.439826 0.436146 0.508041 0.474749 0.441259 
0.425243 0.380007 0.567727 0.410866 0.461848 0.41828 0.443151 0.16873 0.55884 
0.446895 0.556326 0.372527 0.337447 0.422584 0.438681 0.345749 0.157133 0.385368 
0.443034 0.4371 0.428912 0.175306 0.169774 0.446519 0.452035 0.448552 0.399443 
0.153617 0.415549 0.165127 0.409405 0.416415 0.432045 0.137009 0.45368 0.462376 
0.470746 0.46023 0.460112 0.356765 0.355477 0.367587 0.373136 0.389765 0.379851 
0.381884 0.507677 0.381804 0.443814 0.437474 0.457522 0.45278 0.460484 0.452969 
0.469562 0.474099 0.465216 0.470849 0.471995 0.450205 0.475558 0.460638 0.421153 
0.432772 0.507733 0.450267 0.451421 0.602332 0.588842 0.433885 0.568623 0.459741 
0.453204 0.258115 0.403249 0.398179 0.391096 0.388247 0.401003 0.42519 0.435969 
0.43843 0.434375 0.388205 0.376471 0.38428 0.379046 0.450095 0.444054 0.442837 
0.442816 0.508269 0.414114 0.409501 0.540281 0.508326 0.387075 0.43608 0.42944 
0.439783 0.43758 0.440402 0.442604 0.143844 0.462596 0.370019 0.373784 0.40901 
0.5688 0.547032 0.542486 0.50427 0.563209 0.582617 0.439819 0.440469 0.436595 
0.433102 0.166553 0.390313 0.376425 0.334355 0.427229 0.421859 0.444355 0.41582 
0.453402 0.432601 0.456922 0.391342 0.391156 0.388426 0.404766 0.157463 0.158219 
0.395491 0.354493 0.375775 0.355633 0.381528 0.368819 0.389598 0.361483 0.362431 
0.363059 0.269726 0.38504 0.386026 0.460116 0.464472 0.455332 0.452967 0.238551 
0.237379 0.138347 0.141478 0.361252 0.357796 0.364724 0.366328 0.453307 0.425717 
0.505635 0.384988 0.433706 0.225881 0.232236 0.249304 0.255659 0.4282 0.420974 
0.409763 0.405202 0.435808 0.431078 0.424059 0.414012 0.427761 0.430259 0.434574 
0.426511 0.152495 0.156244 0.45559 0.451717 0.440006 0.43989 0.43929 0.557794 
0.441079 0.438173 0.460992 0.454074 0.55528 0.44531 0.449035 0.446665 0.508749 
0.589845 0.423695 0.388494 0.520853 0.430864 0.508893 0.419494 0.388033 0.436283 
0.452974 0.443647 0.426155 0.446123 0.452848 0.13475 0.137881 0.129385 0.136503 
0.433839 0.179343 0.17381 0.249997 0.260136 0.603354 0.416366 0.430492 0.657714 
0.415858 0.319554 0.307073 0.148673 0.443153 0.436924 0.470982 0.383137 0.518881 
0.374907 0.384913 0.372457 0.461304 0.462506 0.459191 0.457947 0.420476 0.457217 
0.440597 0.172719 0.42973 0.434704 0.443411 0.453919 0.198012 0.203121 0.409071 
0.297992 0.28551 0.508031 0.508024 0.387509 0.47904 0.383958 0.474458 0.389733 
0.218707 0.44383 0.458644 0.465673 0.4653 0.464791 0.465164 0.590359 0.425422 
0.439239 0.426259 0.424406 0.171347 0.161259 0.424348 0.163081 0.166867 0.433254 
0.508597 0.432402 0.508125 0.44816 0.448812 0.45396 0.454997 0.449849 0.362227 
0.370104 0.356409 0.441938 0.442255 0.509186 0.509242 0.484509 0.405987 0.409347 
0.483212 0.429269 0.425496 0.42655 0.410307 0.430832 0.449204 0.450941 0.452924 
0.455204 0.452461 0.448914 0.451194 
METADATA
INFORMATION 0

NORMALSTRESS 1 15232 double
-0.09082 -65535 -65535 -65535 1 -65535 -65535 -65535 -65535 
-65535 -65535 1 -39.630333333 -65535 -65535 -65535 1 -65535 
1 -65535 -65535 -65535 -65535 -65535 -65535 -65535 1 
-65535 1 -65535 1 -65535 -65535 -65535 1 1 
-65535 -65535 -65535 -65535 -65535 -65535 -65535 -65535 -65535 
-65535 -65535 -17.718933333 1 -65535 -65535 -65535 -65535 -65535 
-65535 -65535 -65535 -0.64961333333 -65535 -65535 1 1 1 
1 -65535 1 1 -65535 -65535 1 -65535 -55.296066667 
-65535 -65535 -18.566133333 -65535 -65535 -65535 -65535 1 -54.765733333 
-65535 -65535 1 1 1 1 -65535 -65535 1 
-3.3863933333 1 -65535 1 -65535 -65535 -65535 -65535 -65535 
-65535 -65535 1 -65535 -65535 -10.203533333 -65.477066667 1 -65535 
1 1 -65535 -65535 1 1 -65535 1 1 
-65535 1 -65535 -65535 -65535 1 -65535 -65535 -65535 
-65535 -65535 -65535 1 -65535 1 -65535 -65535 1 
-65535 1 1 1 1 1 -65535 1 -65535 
-0.17436 -65535 -4.7533866667 -65535 -53.5808 1 -65535 1 1 
-65535 -65535 1 -65535 -65535 1 1 1 1 
-65535 -65535 -65535 1 -65535 -65535 -65535 -65535 -65535 
-65535 -65535 -65535 -65535 -65535 -65535 -44.522533333 -65535 -65535 
-65535 1 1 -65535 1 1 -65535 -65535 -65535 
1 -65535 -65535 -65535 -65535 -65535 -6.5272 -65535 1 
-65535 -65535 -65535 1 1 1 -65535 1 -65535 
-65535 -65535 1 -45.544733333 -39.158333333 -3.6918733333 -65535 -65535 -65535 
-65535 -65535 -65535 -65535 -51.827333333 -65535 -65535 -6.2963333333 -65535 
-65535 -65535 -65535 -65535 1 -65535 1 -65535 1 
-65535 -21.911 -65535 -65535 -42.5776 -65535 -65535 1 -65535 
-65535 -65535 -65535 -65535 -65535 -65535 -65535 1 -65535 
1 -65535 -65535 -0.66526666667 -65535 -65535 -65535 -65535 1 
-2.5499466667 -56.4162 -45.772733333 1 1 1 1 -65535 1 
-41.222266667 -65535 -63.2176 -65535 -65535 1 1 1 -65535 
-65535 -65535 1 -65535 -65535 1 -65535 1 -65535 
-65535 -65535 -65535 -65535 -65535 -65535 -65535 -65535 -65535 
-59.7896 -57.058266667 -65535 -65535 -65535 1 -65535 -41.821866667 1 
-65535 -65535 -65535 1 -65535 1 -65535 -65535 -65535 
-55.6074 1 -65535 -65535 -65535 -65535 -65535 1 1 
1 -65535 -65535 -65535 -65535 -65535 -65535 -65535 -65535 
-65535 -65535 1 1 -65535 -65535 -65535 -65535 1 
-65535 1 1 1 -65535 1 -65535 -65535 -65535 
1 -65535 -65535 -65535 -36.3526 -65535 -65535 -65535 -65535 
-65535 1 -65535 1 -65535 -65535 1 -65535 -13.553333333 
-2.7755533333 -19.474 1 -65535 -10.050666667 1 0.22891333333 -65535 0.16041333333 
-30.800866667 1 -65535 -57.849133333 1 -65535 1 -65535 -65535 
-65535 1 -65535 -65535 -65535 -65535 1 -65535 -65535 
-65535 -65535 1 1 -21.1374 1 -65535 -65535 1 
1 -65535 -65535 1 1 1 -65535 -65535 1 
-65535 -65535 -65535 -65535 -65535 -65535 -65535 1 -65535 
1 -65535 -65535 -65535 -65535 -3.1956866667 -65535 -65535 -65535 
1 -65535 1 -65535 -65535 -65535 -65535 -65535 1 
-65535 -65535 -65535 -65535 -65535 1 -65535 -65535 -65535 
-65535 1 -65535 -65535 1 -65535 -65535 -65535 -65535 
-65535 -65535 1 1 -65535 -65535 1 -65535 -65535 
-57.9522 -65535 -65535 -65535 0.36715733333 -34.197666667 -36.163266667 1 -65535 
1 -65535 -65535 -65535 1 -65535 -65535 -65535 -65535 
-65535 -39.843533333 -65535 -65535 -65535 1 -65535 -65535 -65535 
-65535 1 1 1 1 -65535 -65535 -65535 -65535 
1 1 1 -65535 -65535 -65535 1 -65535 -65535 
-7.1180666667 -65535 -65535 -65535 -65535 -65535 -0.86844666667 -65535 1 
1 -65535 1 -65535 -5.41232 -65535 -65535 1 -65535 
1 1 -65535 -65535 -65535 -0.36926 -65535 -65535 1 
-65535 -65535 1 -65535 1 -65535 -65535 -6.1527333333 1 
-65535 1 1 -65535 1 -65535 1 -65535 -65535 
-65535 -65535 -65535 -65535 -65535 -65535 -65535 -65535 -65535 
-65535 1 -65535 1 -65535 1 1 -65535 -65535 
1 1 -65535 1 -8.3776666667 -65535 -65535 -65535 -65535 
-65535 -65535 -65535 -65535 -65535 -65535 1 -65535 -65535 
-65535 -65535 -65535 -65535 -65535 -65535 -65535 -65535 -65535 
-65535 -65535 -65535 1 -65535 1 -65535 -65535 -19.278666667 
-65535 -65535 -65535 -65535 -65535 -65535 -65535 1 1 
-65535 -65535 -65535 -65535 -65535 1 -65535 1 -65535 
-65535 -65535 -65535 -32.1924 -65535 1 -65535 -65535 -65535 
1 -65535 1 -55.340333333 -65535 -65535 1 -65535 -65535 
-65535 -65535 -65535 -65535 -65535 -65535 -65535 -65535 -65535 
1 -65535 -65535 -65535 1 -65535 1 1 -65535 
1 -65535 -65535 -65535 -65535 -65535 -65535 1 -65535 
-65535 -65535 -65535 1 1 1 1 1 -65535 
1 -65535 -65535 1 1 1 -65535 -65535 -65535 
-65535 -65535 -65535 -65535 -65535 -65535 -65535 -65535 -65535 
-65535 -65535 -65535 1 1 1 1 1 -65535 
-65535 1 1 -65535 -65535 -65535 -65535 -65535 1 
-36.9814 -65535 -34.508866667 1 -65535 -65535 -65535 -65535 -65535 
1 -65535 -65535 -65535 1 1 -65535 1 -37.370333333 
-65535 -65535 -65535 -65535 1 -65535 -65535 -65535 -65535 
1 1 -65535 -65535 1 -65535 -65535 -65535 -65535 
-65535 1 1 -65535 -65535 -65535 -65535 -65535 -65535 
-40.019533333 -65535 -65535 -65535 -65535 1 -65535 -65535 -65535 
-65535 1 -65535 -65535 -65535 -65535 -65535 -65535 -23.389333333 
-3.2527066667 -30.068266667 -65535 -65535 1 1 1 -65535 1 
-65535 -65535 -1.1010266667 -65535 1 1 -65535 1 -65535 
-65535 -65535 1 -65535 -65535 -65535 -65535 -65535 1 
-65535 -65535 -38.6364 -65535 -43.3624 1 -65535 -65535 -32.640133333 
-65535 -65535 -65535 -65535 -65535 -65535 -65535 -65535 1 
-65535 1 -65535 -65535 -65535 -65535 -65535 1 1 
-65535 1 1 -65535 -65535 -65535 -65535 -26.8278 1 
-65535 1 1 -65535 1 -65535 -65535 1 1 
1 -65535 -65535 -65535 -0.15096 1 -43.8162 -65535 1 
-65535 -65535 -65535 -65535 -65535 -65535 -24.484333333 -65535 -65535 
-65535 -65535 1 -65535 -65535 -34.521133333 -65535 -65535 -65535 
-31.258666667 -54.637866667 1 -43.7388 -65535 -65535 1 -65535 -65535 
-65535 -65535 -65535 -65535 1 -65535 -54.232866667 -65535 1 
1 -65535 1 -65535 -65535 -4.7938066667 1 -65535 -65535 
-36.6006 -65535 -65535 1 1 -65535 1 1 1 
1 -65535 -65535 1 -65535 1 1 -65535 -65535 
-0.1065 -65535 -65535 1 -65535 -65535 -65535 -65535 -49.220533333 
-65535 -65535 1 -65535 -65535 -65535 -63.1798 -52.631333333 -0.60516 
-65535 1 1 -65535 -65535 -65535 -65535 -65535 -65535 
-65535 -65535 -65535 1 -65535 -65535 -65535 -65535 -65535 
1 -65535 1 1 -65535 -65535 1 -65535 -65535 
1 1 -65535 1 1 1 -65535 1 1 
-65535 -65535 -65535 -65535 -65535 1 -65535 -65535 -65535 
-65535 -65535 1 1 -65535 -4.5323466667 -65535 -65535 1 
-65535 -65535 -65535 -65535 -65535 -65535 -65535 1 -65535 
-65535 1 -65535 -65535 -65535 -65535 -65535 -65535 -65535 
-65535 1 -65535 1 -65535 -10.989866667 -65535 -65535 -65535 
-65535 1 -65535 -6.3057333333 -65535 -65535 -65535 -65535 -65535 
-65535 -32.227066667 -65535 1 -65535 -65535 1 -65535 -65535 
-0.48340666667 -65535 -65535 -65535 -65535 -65535 1 -65535 -65535 
1 1 1 -65535 -65535 1 -65535 -65535 -65535 
1 1 -65535 -65535 -49.312666667 -65535 1 1 -65535 
-65535 -65535 1 -65535 1 -65535 -65535 -4.2446466667 -53.809933333 
-66.324666667 1 -65535 -37.089 1 -65535 -65535 -65535 -65535 
-65535 1 -65535 -65535 -65535 -65535 -65535 -65535 -65535 
1 -65535 -65535 -65535 -65535 -18.061 1 -65535 -44.932066667 
-65535 1 1 -65535 1 1 -65535 -65535 -65535 
1 -65535 -65535 -65535 1 -65535 -65535 -65535 -65535 
1 -65535 -65535 -65535 -65535 -65535 -65535 -24.897133333 -65535 
1 -65535 1 1 -65535 -65535 -65535 -65535 -65535 
-65535 1 1 -65535 -65535 1 -36.876 -51.9448 1 
1 -65535 -65535 -65535 1 -65535 -65535 1 -4.62798 
-4.1934333333 -65535 1 -1.13072 -65535 1 1 -65535 -65535 
-65535 -65535 -34.676333333 1 1 1 1 1 -6.7982 
1 -65535 -35.528466667 -65535 1 -65535 -65535 -65535 -65535 
-65535 -65535 -65535 1 1 -65535 1 1 -65535 
-65535 1 1 -65535 -65535 -65535 -65535 -65535 1 
1 -65535 -65535 -65535 0.79386466667 -65535 -6.6440666667 -65535 -65535 
1 -65535 -35.278 -65535 -65535 -65535 -65535 0.33544533333 -65535 
1 -65535 -65535 -65535 1 1 -65535 1 -65535 
-65535 -65535 1 -65535 -29.9826 -65535 -55.9062 1 -65535 
-65535 -65535 1 1 -65535 1 1 1 -65535 
-54.1432 -49.251266667 -20.866133333 -65535 1 -65535 1 -65535 1 
-65535 -65535 -34.090866667 -65535 -65535 1 1 -65535 -65535 
-59.4204 -65535 -65535 -19.9566 -65535 -65535 1 -65535 -65535 
-65535 -65535 1 -65535 -65535 -65535 -65535 -65535 -65535 
-65535 1 -65535 1 -65535 1 1 -65535 -65535 
-65535 -65535 -65535 1 -65535 1 -65535 1 -65535 
-65535 -65535 -65535 -65535 -6.6767333333 -31.3446 1 -65535 -65535 
-65535 1 -65535 -65535 1 -65535 -65535 1 -65535 
1 -65535 -65535 -5.1714266667 -65535 -65535 -61.564266667 -65535 -65535 
-0.08688 -65535 -65535 1 -65535 -65535 -65535 -65535 -65535 
-65535 -65535 1 -65535 -65535 1 -65535 1 1 
1 1 -65535 -0.28168666667 -65535 1 1 -65535 -65535 
1 -65535 -65535 -65535 1 1 1 1 1 
-65535 -65535 -65535 -65535 -65535 -65535 -9.7500666667 -65535 -65535 
-38.6688 -65535 -65535 -65535 -65535 -65535 -65535 1 -65535 
-65535 1 1 -65535 1 -65535 -65535 -65535 1 
-65535 -65535 -65535 -65535 1 -65535 -65535 -65535 -65535 
-65535 -65535 -32.5822 1 -55.898266667 1 1 -65535 -65535 
-65535 -59.629533333 -44.435066667 1 1 -65535 -65535 -65535 -65535 
-65535 1 -65535 1 -65535 -65535 -65535 -65535 -65535 
-65535 -65535 1 -65535 -65535 -65535 -65535 -65535 -65535 
-65535 -65535 -65535 1 1 1 -65535 -65535 -65535 
1 1 -65535 -65535 -65535 -65535 1 1 -65535 
-65535 -0.2582 -56.018866667 -65535 1 1 1 -65535 -65535 
-65535 1 -65535 1 1 -65535 -65535 -65535 -65535 
-4.0622866667 1 -65535 1 1 -65535 -65535 -65535 1 
1 1 1 -65535 -65535 -65535 -65535 -65535 -65535 
-65535 -65535 -65535 -65535 1 -65535 1 1 -65535 
-65535 -65535 -57.907 -65535 1 1 -65535 1 1 
-65535 -65535 1 -65535 -65535 -65535 -65535 -65535 1 
-65535 -65535 -65535 1 1 -65535 -65535 -65535 -65535 
-65535 -65535 -65535 -65535 -65535 -65535 -2.62486 -65535 1 
1 -65535 -65535 -57.486533333 -0.95693333333 -65535 -65535 1 -65535 
-65535 -28.7054 -65535 -65535 -65535 -65535 1 -65535 -65535 
-65535 -65535 -65535 -65535 -65535 -65535 1 -65535 1 
-65535 -65535 1 -65535 -40.677266667 -65535 -65535 -65535 -65535 
-65535 1 1 -65535 -65535 -65535 -65535 -37.2688 -22.4246 
-6.3668 -65535 1 1 -65535 1 -65535 -65535 -50.921533333 
-65535 -65535 -51.126133333 -65535 1 1 -65535 1 -65535 
-65535 1 -33.312533333 1 -65535 -65535 1 1 -65535 
-65535 -65535 -65535 1 1 -11.272266667 -65535 1 -65535 
-5.7835333333 -65535 1 -40.845733333 1 -65535 -31.875333333 -56.360933333 -65535 
-65535 -65535 1 -53.757 -4.2583866667 -65535 -65535 -65535 -65535 
-65535 1 -65535 -65535 -65535 -65535 -65535 1 -65535 
-65535 -65535 1 1 1 1 -65535 -65535 -65535 
1 -65535 -38.525533333 -65535 -65535 -65535 -35.7764 -65535 -65535 
-65535 -65535 -65535 -65535 1 -36.37 1 -31.447133333 -65535 
-65535 -65535 1 -65535 -65535 1 -65535 -65535 -65535 
1 -65535 -26.945733333 -65535 -65535 -65535 -65535 -65535 1 
-65535 -65535 1 -65535 -65535 -65535 1 -65535 -65535 
-65535 -2.96774 -65535 -65535 -65535 -65535 -4.83594 -65535 -65535 
1 -65535 -62.124866667 1 -65535 -54.953266667 -65535 1 -65535 
1 -65535 -65535 -65535 -8.6424 1 -65535 1 -65535 
-65535 -65535 1 -65535 -65535 1 -65535 -65535 -54.2444 
-65535 -65535 -65535 -65535 -65535 1 -65535 -65535 -65535 
-65535 -65535 -65535 -65535 -65535 -65535 -65535 1 1 
-65535 1 -65535 -65535 1 -65535 -65535 -65535 -65535 
-65535 -65535 -44.9502 -65535 -65535 1 -65535 -65535 1 
1 -65535 -37.261333333 -65535 -65535 -65535 -65535 -65535 -65535 
1 -65535 -65535 -65535 -65535 -65535 1 1 -65535 
-65535 1 -65535 -65535 1 1 1 -65535 1 
1 -65535 -0.19612666667 1 1 1 -65535 -65535 -65535 
-56.298533333 -65535 -7.5514 -65535 -65535 -65535 -65535 -65535 -65535 
1 -65535 1 1 1 -65535 -65535 1 1 
1 -65535 1 -65535 1 1 -65535 1 -65535 
-65535 -65535 -65535 1 -65535 -65535 -65535 -32.771066667 1 
1 1 1 -65535 1 -65535 1 -65535 -65535 
-65535 1 -65535 -65535 -65535 -65535 -65535 -65535 -65535 
-65535 -65535 -65535 -65535 -14.5704 1 -65535 -35.559933333 -65535 
-65535 -65535 -65535 -65535 -65535 1 -65535 -65535 -65535 
-65535 1 -65535 -65535 -65535 -65535 -65535 1 -65535 
-65535 -65535 -65535 1 -65535 1 -65535 1 -49.537133333 
-27.305266667 -33.805866667 -65535 1 -65535 -65535 -65535 -65535 -30.4008 
-65535 -65535 1 -65535 -65535 -65535 1 1 -65535 
1 -42.0786 1 -65535 1 1 -65535 -65535 -65535 
1 -65535 -65535 -65535 1 1 -16.682133333 -30.665266667 1 
1 1 -65535 1 1 -65535 -65535 -65535 -43.731666667 
-3.8970333333 -65535 -1.6430533333 1 -65535 -65535 -65535 -65535 -65535 
-19.783066667 -65535 -65535 -65535 1 1 -65535 -65535 -65535 
1 -65535 1 -65535 -65535 1 1 -65535 -65535 
-65535 1 1 -65535 -65535 -65535 -65535 1 -65535 
-65535 -65535 -65535 -65535 -65535 -65535 -65535 1 1 
-65535 -65535 -65535 -65535 -65535 -65535 -65535 -65535 -65535 
-65535 -53.6136 -6.9701333333 -65535 -65535 1 -65535 0.093826666667 -8.3265333333 
1 -65535 1 1 1 1 1 -65535 1 
-65535 -65535 -24.7276 -65535 -65535 -65535 -65535 1 -65535 
-65535 -46.021866667 -65535 1 -65535 -65535 1 1 -65535 
-65535 1 -65535 -65535 1 1 -65535 -65535 -65535 
-65535 -60.231733333 -65535 -65535 1 -65535 -65535 -65535 -65535 
-65535 1 1 -65535 -65535 -26.800133333 0.54572333333 -65535 1 
-65535 -65535 -65535 1 1 -65535 -65535 -65535 -65535 
-26.3094 -65535 -65535 -65535 -65535 -65535 1 -65535 -65535 
-65535 -65535 -65535 -65535 -65535 -65535 -65535 1 -65535 
1 -65535 -65535 1 -65535 -61.8694 -65535 -61.463266667 1 
-65535 -65535 -65535 -65535 -65535 -65535 1 1 -65535 
1 -65535 -65535 -65535 -65535 -65535 1 -65535 -65535 
-14.668066667 1 1 0.9999650696 -59.321933333 -2.4848466667 -65535 -65535 -65535 
1 1 -65535 -65535 1 -65535 -65535 -65535 -65535 
1 -65535 -65535 1 -65535 -65535 -55.949733333 -65535 -65535 
-65535 -65535 -65535 -65535 -65535 -65535 1 0.97242526667 1 
-65535 -65535 -65535 -65535 1 1 -65535 1 -65535 
1 -25.542333333 -65535 1 1 -65535 -65535 -5.03468 -63.271066667 
-65535 -65535 -65535 1 1 1 -65535 1 1 
-65535 -65535 -65535 -65535 -65535 -65535 1 -65535 -65535 
-39.008066667 -65535 -55.438933333 -2.5461333333 -65535 -65535 -65535 1 -65535 
-65535 -65535 -65535 -65535 -57.945933333 -65535 -65535 -65535 -65535 
-65535 1 -65535 -65535 -65535 -65535 1 1 -65535 
-65535 1 -65535 -65535 -65535 -65535 -65535 -65535 -65535 
-65535 -65535 1 1 -65535 1 -65535 -65535 -65535 
-65535 -65535 -65535 -65535 -65535 -65535 1 1 -65535 
1 -65535 -65535 1 1 -65535 -65535 -65535 -9.4065333333 
1 -65535 -63.863066667 -42.436933333 -65535 -40.96 1 -42.4184 -65535 
-39.708333333 -65535 1 1 -65535 1 -65535 -65535 -65535 
-65535 -14.897933333 -65535 -65535 -4.77208 -65535 -5.9217333333 -65535 -65535 
1 -65535 1 -65535 -65535 -65535 -65535 1 1 
1 1 -65535 -65535 -65535 1 -65535 -65535 -65535 
-65535 -65535 -65535 -65535 -65535 -1.8895466667 -57.208333333 -65535 -65535 
1 1 1 -65535 -65535 1 -65535 -65535 -65535 
-65535 -65535 -65535 -37.5264 1 1 1 -65535 -65535 
1 -65535 -65535 -65535 1 -65535 -0.050833333333 -49.477866667 -65535 
-43.375733333 1 1 -65535 1 -65535 -65535 1 -65535 
-65535 -65535 -22.546866667 -65535 1 -65535 -65535 -3.0154933333 -65535 
1 1 -65535 -65535 -65535 -65535 1 1 -65535 
-65535 -5.4115066667 -58.1404 -65535 -65535 -65535 -65535 -65535 -65535 
-65535 -65535 -65535 -65535 -65535 1 -65535 -65535 1 
1 1 -65535 1 1 -65535 -65535 -65535 -65535 
-65535 1 1 1 1 -65535 -65535 -65535 -13.987533333 
-65535 -65535 1 -65535 -65535 -65535 -65535 -28.817066667 -65535 
1 1 -65535 -65535 -65535 -65535 -65535 -65535 1 
-65535 -65535 1 -65535 -65535 -65535 1 -65535 -65535 
-65535 1 -65535 -65535 -65535 -65535 -65535 -65535 -65535 
-61.038133333 -65535 -2.5731266667 -58.149866667 1 1 -65535 1 -65535 
-5.6756666667 -65535 1 -18.870933333 -65535 1 -65535 -64.146933333 -65535 
-49.9792 -65535 1 -65535 -65535 1 -40.7848 1 -65535 
1 1 1 -65535 -65535 -65535 1 1 1 
-65535 -65535 -65535 -1.2089733333 -65535 1 -65535 -65535 -65535 
-65535 -65535 -65535 1 -65535 1 -65535 1 -65535 
1 1 1 1 -65535 1 -65535 -65535 1 
1 -65535 -65535 -65535 1 -65535 -65535 -65535 -42.239466667 
-60.5038 -65535 -50.039733333 -8.1974666667 -55.241066667 -54.3638 -55.5078 -65535 -65535 
-65535 1 -65535 -65535 -65535 -65535 -65535 1 -65535 
-65535 -65535 -65535 -65535 -65535 1 -65535 -65535 -65535 
-65535 -65535 -65535 -65535 1 1 -65535 -65535 1 
-65535 1 -65535 -65535 -65535 -65535 1 -65535 -65535 
-65535 -65535 -65535 1 1 1 -65535 -42.626733333 -50.575266667 
-65535 -65535 -65535 -65535 -65535 -65535 -65535 -65535 -65535 
1 1 -65535 1 -65535 -65535 1 -65535 1 
-65535 -65535 1 -65535 1 -65535 -65535 -65535 -65535 
-65535 1 -59.0924 -65535 -65535 -65535 -35.019666667 -31.442333333 -7.1556666667 
1 -65535 1 1 -17.0382 -65535 -35.624 -65535 -65535 
1 -65535 -65535 -65535 -65535 -65535 -65535 -65535 -65535 
1 1 -65535 -65535 0.31480666667 -1.6600533333 -65535 -54.491733333 -65535 
-65535 1 1 -65535 -65535 -65535 1 1 -65535 
1 -65535 -65535 1 -65535 1 1 1 -65535 
1 -65535 -0.3199 -65535 -31.640733333 1 -65535 -65535 -65535 
-65535 1 -65535 -65535 1 -65535 -65535 -65535 -65535 
-42.0356 -65535 -65535 -65535 -65535 -65535 -65535 -1.6337733333 -22.010533333 
-65535 -65535 -65535 1 -65535 1 -65535 -65535 -65535 
1 -65535 -65535 -3.2505 -62.274533333 -65535 -65535 1 1 
-8.5999333333 -65535 -65535 -29.545466667 0.28902 0.37737133333 -65535 -65535 -65535 
1 -65535 -65535 -54.9048 1 -65535 -65535 -65535 1 
-52.291133333 -65535 -65535 -65535 -65535 -65535 1 1 -65535 
-65535 1 1 1 -53.242466667 -65535 1 -65535 -65535 
-32.105933333 -65535 -65535 -65535 1 -65535 -7.4294 -65535 -65535 
-65535 -65535 -65535 -65535 1 -65535 -65535 1 -65535 
1 -65535 -65535 -65535 -65535 -65535 1 -65535 -65535 
-65535 -65535 1 -65535 1 1 -65535 -65535 1 
-13.071066667 1 -65535 -65535 -65535 -65535 1 -65535 1 
-65535 1 -65535 -65535 -65535 1 -65535 -65535 -65535 
-65535 -65535 -65535 -65535 1 -65535 -65535 1 -65535 
-65535 1 -65535 -43.2934 -65535 -4.26802 1 -65535 -65535 
-6.2076666667 -12.300066667 -11.582066667 -65535 -65535 -65535 -65535 -65535 -65535 
-65535 -65535 -65535 -65535 -65535 -65535 -65535 1 -65535 
-65535 -65535 -65535 1 1 -65535 1 -65535 1 
-65535 -65535 -65535 1 1 1 1 1 -6.6640666667 
-65535 -65535 -65.0366 -65535 -65535 -65535 -65535 -32.833 -29.1234 
1 -65535 1 -65535 -65535 -65535 -65535 -65535 -65535 
-65535 -27.9154 -65535 -60.201933333 -0.41588 -65535 -65535 -65535 -65535 
-43.503266667 1 -65535 1 -65535 -65535 -65535 -65535 -65535 
-65535 -65535 -65535 -33.886133333 1 -65535 1 -65535 -65535 
1 -65535 1 1 0.37737133333 -65535 -28.266866667 -65535 -65535 
-65535 1 -65535 -65535 1 -65535 -65535 -65535 -65535 
-65535 1 1 -65535 -65535 -65535 -65535 -65535 -65535 
-65535 1 -65535 -65535 -65535 -65535 -65535 -56.628266667 -28.010466667 
-65535 -65535 1 -58.638866667 -7.0793333333 -65535 1 -65535 1 
1 -65535 1 -65535 1 -65535 -65535 -65535 -65535 
-65535 -65535 1 -65535 -65535 1 -65535 -65535 1 
1 -65535 -1.5465666667 -65535 -0.93753333333 -65535 1 1 -65535 
-65535 -17.880933333 -65535 -65535 1 1 1 -62.040933333 -65535 
-65535 1 -65535 1 -65535 1 -65535 -65535 -65535 
-65535 -65535 -52.7432 -28.5168 -65535 -65535 -65535 -65535 -6.4919333333 
1 -65535 1 -65535 1 -65535 -5.8583333333 -9.8816 -65535 
-65535 1 -19.336933333 -65535 -65535 -65535 -65535 -65535 -65535 
1 -65535 1 1 -65535 -65535 -65535 -65535 1 
-65535 -65535 -65535 -65535 -65535 1 -65535 -65535 1 
-65535 1 -65535 1 -65535 1 -65535 -65535 -65535 
1 -65535 1 1 -65535 -65535 -57.7722 -61.9562 -19.020333333 
-65535 -65535 -65535 -65535 -65535 1 -65535 1 1 
1 -65535 1 1 -65535 1 1 -65535 -65535 
-65535 -22.085466667 -5.0728533333 -65535 -65535 1 -65535 -65535 -65535 
1 -65535 -47.1946 -65535 1 -65535 -65535 1 -65535 
1 1 -65535 -65535 -65535 -65535 -65535 -45.149 -0.69707333333 
-65535 -0.32683333333 -65535 1 -65535 1 -65535 -65535 -65535 
-40.039466667 -65535 -65535 -65535 -65535 -20.304666667 1 -65535 -65535 
-20.350133333 -65535 1 -65535 1 -65535 -65535 -65535 -65535 
-65535 -65535 -65535 -65535 1 1 -56.022733333 -65535 1 
-6.8723333333 -65535 -65535 -65535 -41.0372 -65535 -65535 -65535 -65535 
1 -65535 1 1 1 -65535 -65535 -65535 -65535 
-65535 1 -65535 -65535 -65535 1 -65535 1 -65535 
-65535 0.82897266667 -47.8918 -65535 -65535 1 1 -65535 -65535 
-65535 -65535 1 1 -65535 -65535 1 1 -65535 
1 -65535 -65535 -65535 -65535 1 -65535 -1.8355333333 -65535 
1 -65535 -65535 1 -65535 -65535 -65535 -65535 -65535 
-65535 1 -65535 1 -65535 -65535 -65535 -52.431 -45.306733333 
-65535 -65535 1 -65535 1 -65535 0.39107666667 -65535 -65535 
-65535 -65535 1 1 -65535 -65535 -65535 -65535 1 
-65535 -4.5397933333 -61.016666667 -65535 -65535 -65535 -65535 1 1 
1 1 1 -65535 -65535 1 -58.059333333 -65535 -65535 
-65535 -65535 1 -65535 1 -65535 -65535 1 -65535 
-65535 1 -65535 -65535 -65535 -65535 -65535 -65535 -65535 
1 -65535 -65535 1 -65535 -65535 -65535 -65535 -65535 
-65535 1 -65535 1 -65535 -65535 -65535 -65535 -65535 
1 -65535 1 -65535 1 -65535 -65535 -65535 1 
1 1 -65535 -65535 -57.4886 1 -59.549 -65535 -65535 
1 -65535 -65535 0.88175533333 1 1 -65535 -65535 -65535 
-65535 -65535 -65535 -65535 -65535 -65535 1 -65535 1 
-65535 -65535 -65535 -65535 -65535 -65535 -65535 -65535 -65535 
1 1 1 -65535 -65535 -65535 -65535 -65535 -65535 
-65535 1 -65535 -65535 -65535 1 -65535 1 -65535 
-65535 1 -65535 -65535 -65535 1 -65535 1 -65535 
-65535 1 -65535 1 -65535 -65535 -65535 1 -65535 
-65535 -65535 -65535 1 -65535 1 -65535 -65535 1 
-65535 -65535 -56.789533333 0.082853333333 -65535 1 -65535 -65535 -65535 
1 1 -65535 -65535 -65535 -65535 1 1 -65535 
-65535 1 -65535 -65535 1 1 -65535 -10.570333333 -65535 
-65535 1 -65535 -65535 1 -5.0470533333 -49.349333333 -65535 -65535 
-65535 -46.5568 -36.098133333 -65535 1 -65535 1 -65535 -65535 
-65535 -65535 1 -65535 1 -65535 -65535 -38.8376 -63.1954 
-65535 -10.994866667 -63.4558 1 1 -65535 -65535 1 -65535 
-65535 -65535 0.712058 -42.556533333 -65535 -16.0688 -65535 -65535 -41.6466 
-65535 -65535 -65535 -65535 0.82001333333 -65535 -65535 -65535 -59.677066667 
-53.201866667 -9.2746666667 -65535 -4.9949666667 -65535 -65535 1 1 -65535 
-9.2980666667 -65535 1 -65535 -65535 1 -65535 -65535 -65535 
1 -65535 -65535 -65535 -65535 -65535 1 -65535 -65535 
-65535 1 -65535 -16.2854 -2.4124666667 -65535 -65535 -65535 -65535 
1 -65535 1 0.94272526667 -46.736866667 1 -65535 1 1 
-65535 -65535 1 -65535 -65535 -65535 -65535 -65535 -65535 
1 1 -65535 -65535 -65535 -65535 1 -65535 1 
1 1 1 -65535 1 -65535 1 -65535 -65535 
-65535 -65535 -65535 -65535 -65535 1 -65535 -35.904266667 -65535 
-65535 -65535 -65535 -65535 1 1 -65535 1 1 
-65535 1 1 -65535 -65535 -65535 1 -65535 -65535 
-65535 -65535 -65535 -65535 -65535 -65535 -65535 -65535 1 
-65535 -65535 -65535 1 -65535 1 -65535 -65535 1 
-65535 -65535 -65535 1 1 -65535 -65535 -65535 -65535 
1 -65535 -65535 1 1 -65535 -65535 -65535 -65535 
-4.1435266667 -53.997733333 -65535 -16.435666667 -30.971866667 -65535 -19.512466667 -65535 1 
-44.4074 -65535 -46.6016 -65535 -65535 -65535 -65535 -65535 -65535 
-65535 1 1 -65535 -65535 1 -65535 1 1 
-65535 -65535 -65535 -65535 -65535 -65535 -65535 -65535 -65535 
-65535 -65535 -58.049533333 -65535 1 1 -65535 1 -65535 
-65535 -65535 1 1 -65535 -65535 -65535 -24.040533333 -52.918066667 
-65535 -65535 1 -65535 1 1 1 -65535 -65535 
1 -65535 -65535 -65535 -65535 -65535 -65535 -65535 -65535 
1 0.97242526667 0.22891333333 -65535 -52.5274 -65535 0.97242526667 -65535 -65535 
1 -65535 -65535 -27.4722 -65535 -65535 -31.249933333 -65535 -65535 
1 -65535 -41.270466667 -65535 1 -65535 1 -65535 -65535 
-65535 -65535 -65535 -62.208066667 -40.1906 1 0.33544533333 -65535 1 
-65535 1 -65535 -65535 -65535 -65535 -65535 -65535 -65535 
-65535 1 -65535 -47.258733333 -3.8202266667 -65535 -65535 -65535 -65535 
1 -65535 1 -65535 -65535 -65535 -65535 1 1 
-65535 1 -56.0404 1 1 1 -65535 1 1 
1 1 1 -65535 -5.3365933333 -65535 -65535 -3.1544466667 -65535 
-65535 -65535 1 -50.343133333 -65535 -65535 1 -65535 1 
-42.1582 -65535 -65535 -65535 1 -56.7922 -65535 -65535 -22.485733333 
-65535 -65535 -65535 -65535 -65535 -65535 -65535 -65535 -65535 
1 -65535 -65535 -65535 1 -65535 -65535 -65535 -65535 
1 -65535 1 1 -65535 -65535 -65535 1 1 
-65535 -65535 -65535 -65535 -65535 -65535 1 -65535 -65535 
-52.9334 -7.9919333333 -65535 -41.763666667 -65535 -65535 -65535 1 -65535 
-65535 -65535 1 1 -65535 1 1 1 -65535 
-65535 -29.0726 -1.7416733333 -65535 -65535 -65535 -65535 1 1 
-65535 1 -65535 1 -65535 -65535 1 1 -65535 
1 -65535 -65535 -65535 -65535 -65535 1 -65535 1 
1 -65535 -65535 -65535 -65535 -65535 -65535 1 -5.9080666667 
-65535 -65535 1 -65535 -65535 1 -65535 -65535 -65535 
1 -65535 1 -65535 1 1 -65535 1 1 
1 -65535 -65535 1 -65535 -65535 1 1 -65535 
-65535 -49.3456 -52.038533333 -33.149266667 -65535 1 -65535 1 -65535 
-65535 -65535 -65535 -65535 1 -65535 -65535 -65535 0.78991933333 
-24.968133333 -65535 -65535 -65535 -65535 1 -65535 -65535 0.93214133333 
1 -65535 -65535 1 1 -65535 1 -65535 1 
-65535 -65535 1 -65535 -11.8684 -65535 -65535 1 -65535 
1 -65535 -65535 1 -65535 -65535 1 1 -65535 
1 -65535 -65535 -65535 1 -65535 1 1 -65535 
1 -65535 1 -65535 1 1 -65535 -65535 1 
-65535 -65535 -59.948133333 1 -65535 -65535 -65535 1 -65535 
-65535 -40.4568 -65535 -65535 -19.908933333 -7.6201333333 -38.0008 -65535 -65535 
1 -5.0815866667 -65535 1 -0.34002 -65535 -65535 -65535 -65535 
-65535 -65535 1 -65535 1 1 1 -65535 1 
1 -65535 -65535 -65535 -65535 -29.4676 -25.6022 -65535 -65535 
-24.848066667 1 -65535 -65535 -65535 -65535 -65535 -65535 -65535 
-8.0438666667 -65535 -65535 -65535 1 -65535 -65535 1 1 
1 -65535 -65535 -65535 -65535 1 1 -65535 1 
1 -65535 -65535 -65535 -65535 -65535 -14.062266667 -65535 1 
1 -65535 1 1 -65535 -65535 -65535 1 -65535 
-65535 -65535 -1.60072 -65535 -17.0432 -65535 1 -65535 -65535 
-65535 1 -65535 1 -65535 1 -65535 1 -65535 
-65535 1 1 -65535 -65535 -65535 -65535 -3.2448066667 -65535 
1 -65535 -65535 1 -65535 -65535 -65535 -65535 -65535 
-65535 -65535 -65535 -65535 -65535 1 -65535 -65535 0.712058 
-65535 1 1 -65535 -65535 -65535 -65535 -65535 -65535 
-65535 -37.166466667 -65535 -65535 -65535 -65535 -65535 -65535 -65535 
-31.9014 -65535 -65535 -65535 -65535 -65535 -65535 -65535 -65535 
-65535 -65535 -65535 1 -65535 -65535 -65535 -65535 1 
-65535 -65535 -65535 -65535 -65535 -65535 -65535 -65535 -65535 
1 -65535 1 1 -65535 -65535 -65535 1 1 
1 -65535 1 1 -65535 -65535 -65535 -65535 -65535 
1 1 -65535 -65535 -65535 -65535 -65535 1 -65535 
-65535 -65535 1 -65535 -65535 1 -65535 1 -65535 
1 -65535 -65535 1 1 1 -65535 -65535 1 
1 -65535 1 -65535 -65535 -65535 -33.252 -65535 -65535 
-65535 1 -65535 -65535 -65535 -65535 -65535 -65535 1 
-45.9804 -65535 1 -65535 1 -65535 -65535 -65535 -65535 
-65535 -65535 1 1 -65535 -65535 -65535 -65535 -48.517333333 
-65535 -65535 -65535 1 -65535 -65535 -65535 -65535 1 
-65535 -65535 -65535 -20.767666667 -65535 -65535 1 -65535 -65535 
-35.644666667 -65535 -65535 -34.543266667 -65535 -65535 -65535 1 -65535 
-65535 -65535 1 1 -65535 1 -65535 1 -65535 
-65535 1 -65535 -65535 -65535 -65535 1 1 -31.673466667 
-65535 -65535 -65535 1 -65535 -16.466 -65535 -65535 -33.7368 
-65535 1 -65535 -65535 1 -65535 -65535 -65535 -65535 
1 1 -65535 -65535 -20.159333333 -24.119066667 -65535 -65535 1 
1 -65535 -65535 1 -65535 -65535 -65535 -3.9078466667 -20.796933333 
-65535 -65535 -27.764133333 1 -65535 -65535 1 -65535 -65535 
1 0.11926 -25.630533333 1 -65535 -65535 -65535 -65535 -58.0676 
-59.579666667 -65535 -60.881666667 -65535 -65535 1 -65535 1 -65535 
1 1 -65535 -65535 -65535 1 -65535 -65535 1 
-65535 -65535 -3.6909266667 1 1 1 -65535 -65535 -65535 
1 1 1 -65535 1 1 -65535 1 -65535 
1 -65535 -64.016466667 -65535 1 -65535 -65535 -65535 -65535 
-65535 0.54572333333 -32.925666667 -65535 1 -65535 -65535 -65535 1 
-65535 -65535 -65535 -65535 -65535 1 -56.494533333 -65535 -65535 
-65535 -65535 -65535 -65535 -65535 -65535 -65535 1 1 
-65535 -65535 -65535 -65535 -65535 -65535 -3.8265866667 -65535 1 
1 1 -65535 -65535 1 1 -65535 -65535 -65535 
-47.3152 1 -65535 1 -65535 -65535 -65535 -65535 1 
1 1 -65535 -65535 -65535 -65535 -65535 -65535 -65535 
-65535 -39.255466667 -65535 1 -65535 1 -65535 -0.22916 1 
-65535 -65535 -29.5098 1 -65535 -65535 -65535 -65535 -65535 
-65535 -65535 -5.957 -65535 -65535 -65535 -65535 1 -65535 
1 -65535 -65535 -29.721866667 -60.218666667 1 -1.4567666667 -65535 -59.2136 
-65535 1 -65535 -65535 -65535 -32.524266667 -65535 -65535 1 
-65535 -65535 -65535 -65535 -65535 -65535 -65535 -65535 -65535 
-57.507466667 1 -46.764466667 -65535 -65535 0.676724 1 -65535 -65535 
1 -65535 1 1 1 -65535 -65535 1 1 
-65535 -65535 1 -65535 -65535 -65535 -65535 -47.854066667 -65535 
1 0.97242526667 -65535 -65535 -65535 -65535 1 -65535 1 
1 -65535 -65535 -65535 1 -33.0774 -65535 -65535 -65535 
1 -65535 -65535 -65535 -65535 -56.804466667 -65535 -65535 -65535 
-65535 1 -65535 -65535 -65535 -65535 -65535 -65535 -65535 
1 -65535 -65535 -65535 -65535 -5.6943333333 -26.5096 -28.401333333 -65535 
-65535 -6.5256 1 -65535 1 1 -65535 -65535 1 
-65535 -65535 -65535 -65535 -65535 -65535 -65535 -65535 -65535 
-65535 1 1 1 1 -65535 1 -65535 -65535 
-65535 -65535 -65535 -0.34002 -65535 -65535 -65535 -65535 1 
-65535 -4.20448 -65535 -65535 1 -65535 -65535 -65535 -65535 
-65535 -65535 1 -65535 -65535 -8.3808666667 -5.747 -20.411733333 -65535 
1 -25.710866667 -5.7014 -65535 -65535 -65535 -65535 1 -65535 
-65535 -65535 -7.6394666667 -65535 1 -65535 -65535 -65535 -65535 
1 1 -65535 1 -65535 -65535 -0.66526666667 -65535 -65535 
-65535 1 -26.615 -3.0164533333 -12.326933333 -65535 -4.5863066667 1 -65535 
-65535 -65535 1 1 1 0.513598 -65535 -65535 -65535 
1 1 -65535 -65535 1 1 -65535 -65535 -65535 
-65535 -65535 1 -65535 -41.7302 -65535 -41.519933333 -65535 -65535 
-65535 1 -65535 -40.039333333 -65535 1 -65535 1 1 
-65535 -65535 1 -65535 -65535 -6.5883333333 -65535 -65535 -65535 
-65535 -65535 -65535 -65535 -65535 -65535 -65535 -65535 1 
1 1 -65535 1 1 -65535 1 -65535 -65535 
1 1 -65535 -3.4972466667 -65535 -0.031933333333 1 -65535 -65535 
-43.1658 1 -65535 -52.232866667 -65535 -65535 -65535 1 1 
-65535 1 -65535 -65535 -65535 -65535 -65535 -65535 1 
-65535 -65535 -65535 -65535 -65535 1 -65535 1 -65535 
-31.869866667 -65535 -65535 -33.7182 -65535 -65535 -61.7878 -65535 -1.1603733333 
-65535 -65535 -65535 -65535 -1.3314 -65535 -65535 0.72175066667 -65535 
-65535 1 -65535 1 1 1 -65535 -65535 -65535 
1 1 1 1 -65535 -65535 1 1 1 
-65535 -65535 1 -65535 1 -65535 -65535 -65535 -65535 
1 1 -65535 -65535 -65535 -6.6885333333 -9.2067333333 -65535 -65535 
-65535 -65535 -65535 -65535 -65535 1 -38.4582 -55.634933333 -65535 
1 1 -65535 -65535 -65535 -65535 -65535 -65535 -65535 
1 -65535 1 1 -65535 1 -65535 -65535 -47.665466667 
-65535 -8.5602666667 1 1 1 1 -65535 -65535 -65535 
-1.9778466667 -53.862 -38.9304 -65535 1 1 -65535 -65535 -65535 
-65535 -65535 -65535 1 1 1 1 -65535 -65535 
-65535 -65535 -65535 1 -65535 -65535 -65535 1 -65535 
-65535 -65535 -65535 -65535 1 -65535 -65535 1 -65535 
-65535 1 1 1 -65535 1 -57.445266667 -65535 1 
-65535 -65535 1 -65535 -65535 -65535 1 1 -65535 
-65535 -65535 1 -65535 -65535 1 -65535 -65535 -65535 
-65535 -65535 -65535 -1.658 -65535 1 -65535 0.76011466667 1 
-65535 -65535 -65535 -65535 -65535 1 -65535 -65535 0.79386466667 
-0.91668 -10.8776 -65535 1 1 -65535 1 1 -65535 
1 1 -65535 -65535 1 -65535 -65535 -65535 -65535 
-65535 -7.9761333333 -3.6594733333 -65535 -65535 -65535 -65535 1 1 
-65535 -57.1882 -65535 -65535 -65535 -65535 -65535 -65535 -65535 
-65535 1 -65535 1 -65535 -65535 -65535 -65535 -65535 
1 -65535 1 -65535 -65535 -48.258066667 -65535 1 -65535 
1 -65535 1 -65535 1 -65535 1 -65535 -65535 
-65535 -65535 -65535 -65535 -65535 -65535 -35.4426 -65535 -65535 
-55.3738 -65535 -65535 1 -65535 -15.592 1 -65535 -65535 
1 1 1 1 -65535 -65535 1 -65535 1 
-65535 -65535 -65535 1 -65535 -65535 -65535 -34.129666667 -1.8860133333 
0.88175533333 1 -65535 -65535 -65535 1 -65535 0.88175533333 -65535 
-4.1196933333 -65535 -65535 1 -65535 -0.52157333333 -65535 1 1 
1 1 1 -65535 -48.046933333 -65535 -16.351333333 -65535 -65535 
-65535 1 1 -65535 -65535 -65535 -65535 -65535 -33.749466667 
1 1 -65535 -65535 -65535 -65535 1 1 -65535 
-65535 -65535 1 -65535 -65535 -65535 1 -65535 -65535 
-65535 -65535 1 -65535 -65535 -65535 -65535 -65535 -4.3693466667 
-65535 1 1 -65535 -44.152933333 -65535 -65535 -65535 1 
-65535 -65535 -39.200666667 -65535 -40.3656 -65535 1 -65535 1 
-65535 -65535 -65535 -65535 -65535 -1.58934 1 -65535 -65535 
-65535 -17.544533333 -26.385866667 -65535 -65535 -65535 -65535 -65535 1 
-23.559866667 -65535 -65535 -65535 1 -65535 -65535 -65535 1 
-65535 -30.5352 1 -28.765 -65535 -65535 -35.251266667 -40.0754 -65535 
-65535 -65535 -57.203333333 -65535 -65535 -3.9842 -2.8482333333 -0.1065 -65535 
1 -65535 -65535 -65535 -65535 -65535 -28.3026 -65535 -25.322266667 
-24.012266667 -65535 1 -65535 1 -65535 1 -65535 -65535 
-65535 -65535 1 -65535 -65535 -65535 1 -65535 -65535 
-39.0924 -65535 -65535 -65535 -65535 -65535 -65535 1 -65535 
-65535 -65535 -65535 -18.911266667 -65535 -65535 -65535 -65535 -65535 
-5.2759 -6.1735333333 -65535 1 -65535 1 1 1 1 
1 1 1 1 -65535 -65535 -65535 -65535 -65535 
-12.881333333 -39.806133333 -65535 -43.1688 1 -65535 1 -65535 1 
-65535 -65535 -65535 1 1 1 -65535 -65535 -65535 
-65535 -65535 -4.4513933333 -46.683733333 -65535 -61.1448 -65535 -65535 -65535 
-65535 1 -65535 -65535 1 -65535 -65535 -65535 -65535 
-65535 1 1 -65535 -65535 -65535 -65535 -65535 -65535 
1 -63.990866667 -65535 -65535 -65535 1 -65535 1 -65535 
1 1 -65535 -65535 1 1 -65535 -65535 -65535 
1 -28.426333333 -65535 -65535 -47.4914 -65535 -65535 -65535 -65535 
-65535 -31.422733333 -65535 -65535 -65535 -65535 1 -65535 1 
1 -65535 1 -65535 1 1 -65535 -65535 -65535 
-65535 1 -65535 -65535 -65535 1 1 -65535 -65535 
-65535 -65535 -65535 -16.717066667 -63.347866667 -65535 -65535 1 -67.494 
-65535 -65535 1 -65535 -65535 0.15665333333 -54.766866667 -65535 -65535 
-65535 -65535 1 -65535 -65535 -65535 1 -65535 -65535 
-65535 -65535 1 -65535 -65535 -65535 -65535 -65535 -50.157266667 
-65535 -65535 -65535 -20.042933333 -65535 -65535 -31.3852 -65535 -65535 
-65535 0.39108066667 -65535 -17.988466667 -65535 -34.214133333 -65535 -65535 -65535 
1 -0.60978666667 -65535 1 -65535 1 -0.91668 -65535 -65535 
1 1 1 -65535 -65535 1 -65535 -65535 1 
-40.783066667 -30.804466667 0.575416 -65535 -21.781466667 -14.7874 -65535 -65535 1 
1 -65535 1 -65535 1 1 -65535 -65535 -65535 
-65535 -65535 -65535 -65535 1 -65535 -65535 -65535 -65535 
-65535 -65535 -65535 1 -60.664333333 -42.178533333 -55.649733333 -65535 -7.4984 
-65535 -21.6542 -65535 1 1 -65535 1 1 -65535 
1 -65535 1 -65535 -65535 -12.1122 -65535 -65535 -65535 
-61.527733333 -65535 -65535 -65535 -65535 -65535 1 -65535 -65535 
1 -3.2616066667 -65535 -65535 -65535 -65535 -8.5656 -65535 -43.4578 
-65535 1 -65535 1 1 1 -65535 -65535 -65535 
1 -6.6108 -65535 -65535 -28.1632 1 1 -65535 1 
1 -65535 1 1 1 1 -55.865733333 -65535 1 
-65535 -58.353133333 -65535 -65535 -8.8307333333 -10.650266667 -65535 -65535 1 
-65535 1 1 -65535 1 -65535 1 1 -65535 
-65535 -65535 -65535 1 -65535 -65535 -65535 -65535 -65535 
1 -65535 -65535 1 -65535 -65535 1 -12.282733333 -65535 
-8.3889333333 -65535 -65535 -54.4228 -65535 -65535 -65535 1 -65535 
-65535 -65535 -65535 -65535 -65535 -65535 -65535 1 -65535 
-65535 -65535 -65535 -65535 1 -65535 -65535 1 -65535 
-65535 -65535 -65535 -65535 -65535 -65535 -65535 -65535 1 
1 1 -6.5933333333 -29.986066667 -65535 -65535 -65535 1 -65535 
1 -65535 1 -65535 -65535 1 -65535 -65535 -65535 
-65535 1 -65535 1 -65535 -65535 -65535 -4.4597 -65535 
-24.493666667 -19.203933333 -65535 -65535 -65535 1 1 1 -65535 
-65535 -65535 -65535 -65535 -65535 -65535 -65535 -65535 -65535 
-65535 -65535 -65535 1 -65535 -65535 -65535 -65535 -65535 
1 -65535 -65535 1 1 -65535 1 -65535 1 
-65535 -65535 -65535 -65535 -65535 0.22891333333 -65535 1 -38.096866667 
-65535 -65535 -34.494466667 -65535 -32.865333333 -65535 -33.668866667 -65535 -65535 
-65535 -6.6803333333 -65535 -65535 -65535 -65535 -65535 1 1 
-65535 1 -65535 -65535 -65535 1 -65535 1 -65535 
-65535 -65535 -65535 -65535 1 -65535 -65535 -65535 1 
-65535 -65535 -65535 -65535 -65535 1 -65535 -65535 1 
1 1 -65535 -65535 -65535 -6.0536666667 -2.3183 -65535 -65535 
-65535 -65535 -65535 -65535 -65535 1 -65535 -65535 1 
-65535 -65535 -65535 -65535 1 -65535 1 1 -65535 
-65535 1 -6.6481333333 0.49934066667 -3.8445533333 1 -65535 1 -65535 
-65535 -65535 -65535 -65535 1 -65535 -65535 -65535 -65535 
-65535 -65535 -65535 1 -65535 -65535 -65535 -65535 -65535 
-65535 -65535 -65535 -9.0744666667 -5.6372466667 -65535 1 -65535 -65535 
-65535 -65535 -65535 1 1 -65535 -65535 -65535 1 
-65535 1 -56.396466667 -52.252133333 -65535 1 1 1 -65535 
1 -65535 -65535 -65535 1 1 -65535 -65535 -50.783066667 
-65535 -65535 -65535 -65535 -65535 1 -65535 -65535 -65535 
-65535 1 -65535 -65535 -65535 -46.888533333 -65535 -65535 -65535 
1 -65535 -65535 1 -65535 1 -65535 -65535 -65535 
1 -65535 1 -65535 -65535 1 1 -65535 -65535 
-65535 -65535 -65535 1 0.52306533333 -65535 -44.615333333 -0.44138 -65535 
1 1 -65535 1 -65535 1 -65535 -65535 1 
1 1 -65535 -65535 1 1 -65535 -65535 -65535 
-65535 1 -65535 1 1 -65535 -65535 1 -65535 
1 -65535 -65535 -65535 -65535 -65535 1 -65535 1 
1 -65535 -65535 -65535 -65535 -65535 1 -65535 -65535 
-65535 -65535 -6.1626666667 -65535 -65535 -65535 1 -65535 -65535 
1 -65535 -65535 1 -65535 -65535 -65535 -65535 1 
1 1 -65535 -60.853733333 -65535 -61.132266667 -3.1912 -57.9724 1 
1 -7.9462 1 -65535 -65535 1 -65535 1 -38.764533333 
-38.1166 -65535 -39.082066667 -65535 -65535 -65535 -65535 -65535 -65535 
-65535 -65535 -65535 -65535 -65535 -65535 -65535 1 -65535 
-65535 -65535 1 -65535 -65535 -65535 1 -65535 -65535 
-65535 1 -65535 1 -65535 -65535 1 1 1 
-65535 -65535 -65535 -65535 -65535 -65535 -65535 -31.007733333 -65535 
-65535 1 -65535 -65535 1 -65535 -65535 -65535 -65535 
-65535 -65535 -65535 1 -65535 -65535 -65535 1 1 
1 -65535 1 1 -65535 1 -65535 1 -56.1432 
-6.6822666667 1 1 1 -65535 1 -65535 1 -65535 
-65535 -65535 -65535 -65535 1 -65535 1 1 -65535 
-65535 -65535 1 1 -65535 1 -65535 -65535 -65535 
1 -65535 1 1 -65535 -65535 -65535 -65535 -65535 
1 1 -65535 1 -65535 -65535 -65535 1 -65535 
-65535 1 -65535 -65535 -65535 -65535 -65535 -65535 1 
-65535 -65535 -65535 -65535 1 1 -65535 1 -65535 
-65535 -65535 -65535 -65535 -65535 1 -65535 1 -65535 
-65535 1 1 1 -65535 -65535 -65535 -65535 1 
-65535 -65535 -65535 1 1 -65535 1 -65535 -65535 
-65535 1 1 -65535 1 1 -65535 -65535 1 
1 -65535 -65535 -65535 1 1 -65535 -65535 -65535 
-65535 -65535 1 -65535 -65535 1 1 1 -65535 
-65535 -65535 -65535 -65535 -65535 -65535 -65535 -65535 -65535 
-65535 1 -65535 -65535 -65535 -65535 -65535 1 1 
1 -65535 -65535 -65535 1 -65535 1 -65535 -65535 
-65535 -65535 -35.5596 0.513598 -65535 -65535 1 -65535 -65535 
-65535 -65535 1 -65535 -65535 -65535 -65535 -65535 -65535 
-65535 -65535 -65535 1 -65535 -65535 -65535 -65535 -65535 
-65535 1 -65535 1 -65535 -65535 1 -65535 -65535 
-65535 1 -65535 -65535 -65535 -65535 -65535 -65535 1 
-65535 -65535 -65535 -65535 -65535 1 -65535 1 -65535 
-65535 -65535 -65535 1 -65535 -65535 1 -65535 -65535 
-65535 -65535 -65535 1 -65535 -65535 1 1 -65535 
1 -65535 -65535 1 -65535 -65535 1 1 1 
-65535 1 -65535 -65535 -65535 -65535 1 1 -65535 
-65535 -65535 1 -65535 -65535 -65535 -65535 1 1 
-65535 -65535 -65535 -65535 -65535 -65535 -65535 -65535 -65535 
-65535 -65535 1 -65535 -65535 -65535 1 -65535 1 
-65535 -65535 -65535 -65535 1 -65535 -65535 -65535 -65535 
-65535 -65535 -65535 -65535 -65535 1 -65535 -65535 -65535 
-65535 -65535 1 -65535 -65535 -65535 -65535 1 -65535 
-65535 1 1 1 -65535 -65535 -65535 -65535 -65535 
-65535 1 -65535 -65535 -65535 -65535 1 -65535 1 
-55.839933333 -65535 -65535 -3.8418466667 -65535 -46.301733333 -65535 1 -65535 
-65535 -65535 -65535 -65535 -65535 -65535 -5.4209266667 -65535 -65535 
-34.950933333 -35.275333333 -65535 -65535 1 -65535 -65535 -65535 -65535 
1 -65535 -65535 -65535 -65535 -65535 0.55183066667 -65535 -65535 
-65535 -65535 -59.616466667 -65535 -65535 -65535 -65535 1 1 
-65535 -65535 -65535 -65535 1 -65535 -65535 -65535 -65535 
-65535 -65535 -65535 -65535 1 -65535 1 -65535 -65535 
-65535 -65535 -65535 -65535 -65535 -65535 -65535 -65535 -65535 
-39.6056 -65535 -65535 -65535 -65535 -65535 -65535 -65535 -65535 
-65535 -65535 1 -65535 -65535 -65535 -65535 -65535 -65535 
1 -65535 1 -65535 -1.1906266667 -65535 -65535 -65535 -65535 
-65535 1 1 -65535 -35.256666667 -65535 -65535 -65535 -65535 
1 -65535 -65535 1 -65535 -65535 -65535 -65535 -65535 
-65535 -65535 -65535 1 -65535 -65535 -65535 1 -65535 
1 -65535 -65535 1 -65535 -65535 -65535 -65535 -65535 
-65535 1 -65535 -65535 -65535 -65535 0.88175533333 0.04604 -65535 
1 1 1 -65535 -65535 -65535 -65535 -65535 -65535 
1 -65535 1 -65535 -65535 -65535 -65535 -65535 -65535 
-65535 -65535 -65535 1 -65535 -65535 -65535 1 -65535 
-65535 -65535 -65535 -65535 -65535 1 -65535 -65535 1 
-65535 1 1 -65535 -65535 -65535 -65535 -65535 -65535 
-65535 -65535 -65535 -65535 1 -65535 1 1 -65535 
-65535 -65535 -65535 -65535 -65535 -65535 -65535 -65535 -65535 
-65535 1 -38.824133333 -39.2326 -65535 -36.8926 1 -65535 1 
-65535 -65535 -65535 -65535 1 1 -65535 -65535 -65535 
-65535 1 1 -65535 -65535 -65535 -65535 -65535 -65535 
-65535 -37.452266667 -34.898533333 -65535 -65535 -65535 -65535 -65535 -65535 
-65535 -65535 -65535 -65535 -65535 -65535 -65535 1 1 
1 1 -65535 -65535 -65535 1 -65535 1 1 
1 1 -65535 -65535 -65535 -65535 -65535 -65535 -65535 
-65535 -65535 -65535 -65535 -65535 -65535 -65535 -65535 1 
-65535 -65535 -65535 -65535 1 -65535 -65535 -65535 -65535 
-65535 -65535 1 1 -65535 -65535 -65535 1 -65535 
1 -65535 -65535 -65535 1 -65535 1 1 -65535 
1 -65535 1 1 1 -65535 -65535 -65535 -65535 
1 -65535 -65535 1 1 -65535 -65535 -65535 -65535 
-65535 -65535 -65535 1 -65535 -65535 -65535 1 1 
1 -65535 -65535 1 -65535 1 1 -65535 -65535 
-65535 1 1 -65535 -65535 -65535 -65535 -65535 -65535 
1 -65535 -65535 -65535 1 -65535 -65535 1 -65535 
-65535 1 -65535 -65535 -65535 -65535 -65535 1 1 
-65535 -65535 -65535 1 1 1 -65535 -65535 1 
-65535 -65535 -65535 -65535 -65535 -65535 -65535 -65535 1 
-65535 1 -65535 -65535 -65535 -65535 -65535 -65535 -65535 
-65535 1 -65535 1 -65535 -65535 -65535 -65535 -65535 
-65535 -65535 -65535 1 -65535 1 -65535 1 -65535 
1 -65535 1 -65535 -65535 -65535 -65535 -65535 -65535 
1 1 1 -65535 -65535 -65535 -65535 1 1 
1 -65535 1 -65535 -65535 -65535 -65535 -65535 1 
-65535 1 -65535 1 1 -65535 -65535 -65535 1 
1 -65535 1 1 -65535 -65535 -65535 1 -65535 
-65535 -65535 -65535 1 1 -65535 -65535 -65535 -65535 
-65535 -65535 -65535 -65535 -65535 -65535 -65535 -65535 1 
-65535 1 -65535 -65535 -65535 -65535 1 1 -65535 
-65535 -65535 1 1 -65535 -65535 1 -65535 -65535 
-65535 -65535 -65535 -65535 -65535 -65535 1 -65535 1 
1 -65535 1 -65535 -65535 1 -65535 -65535 -65535 
1 -65535 1 -65535 -65535 1 -65535 1 1 
-65535 1 -65535 -65535 -65535 1 -65535 -65535 -65535 
-65535 1 1 1 -65535 -65535 -65535 -65535 -65535 
-65535 -65535 -65535 -65535 -65535 -65535 -65535 1 -65535 
-65535 1 -65535 -65535 -65535 -65535 -65535 -50.673666667 1 
-65535 -65535 -65535 -35.3604 -65535 -34.7696 -65535 1 -65535 
-65535 -65535 -65535 -65535 -65535 -65535 -65535 -65535 -65535 
-65535 -65535 -65535 -65535 -65535 -65535 1 -65535 -65535 
1 -65535 -65535 -65535 -65535 1 1 1 -65535 
1 1 -65535 -65535 -65535 -65535 -65535 -65535 1 
-65535 -65535 1 -65535 -65535 -65535 -65535 -65535 -65535 
-65535 -65535 -65535 -65535 -65535 -65535 -65535 1 -65535 
-65535 1 -65535 -65535 -65535 -65535 -65535 -65535 -65535 
-65535 -65535 -65535 -65535 -65535 -65535 -65535 -65535 -65535 
-65535 1 -65535 -65535 -65535 -65535 -65535 -65535 -65535 
-65535 -65535 -65535 -65535 -33.3932 1 1 -65535 -31.009533333 
-65535 -65535 -65535 -65535 -65535 -65535 -65535 1 1 
-65535 -65535 -65535 -65535 -65535 -65535 -65535 -65535 -65535 
-65535 -65535 1 -65535 -65535 -65535 -65535 1 -65535 
-65535 1 -65535 1 -65535 -65535 -65535 -65535 -65535 
-65535 -65535 -65535 -65535 -1.60072 1 -65535 -31.0824 -65535 
-65535 -65535 -65535 -65535 -65535 -55.8696 -50.215066667 -65535 1 
-65535 1 -65535 -65535 -65535 1 -65535 -65535 -65535 
-65535 -65535 -65535 1 -65535 1 -65535 -65535 -6.0146666667 
-61.976666667 -65535 -65535 -65535 -65535 -65535 1 1 -65535 
-65535 -65535 -65535 1 -65535 -65535 -65535 -65535 -65535 
-65535 -65535 -65535 -65535 -65535 -65535 -65535 -65535 -65535 
-65535 -65535 -65535 -65535 -65535 -65535 -65535 -65535 -65535 
-65535 -65535 -65535 -65535 -65535 -65535 -65535 -65535 -65535 
-65535 1 -65535 -65535 -65535 -65535 -65535 0.96596173333 -58.8144 
0.33320666667 -65535 -65535 -49.805866667 -65535 -65535 1 -65535 -65535 
-65535 -65535 -65535 -65535 -65535 1 -65535 -65535 -65535 
-65535 -65535 1 1 -65535 -65535 -65535 1 -65535 
1 1 -65535 -65535 -65535 -65535 -65535 -65535 -65535 
-65535 -65535 -65535 -65535 1 -65535 -65535 -65535 -65535 
-65535 -65535 -65535 -65535 -65535 -65535 -65535 -65535 -65535 
-65535 -65535 1 -65535 1 -65535 -65535 -65535 -65535 
-65535 -65535 -50.285533333 -65535 -65535 -65535 -65535 -65535 -65535 
-65535 -65535 -65535 -34.354466667 1 1 1 -65535 1 
-65535 -65535 1 -65535 -65535 -65535 -65535 -65535 1 
-65535 -65535 -65535 -65535 -65535 1 -65535 -65535 -65535 
1 -65535 1 -65535 -65535 -65535 -65535 -65535 -65535 
-65535 -65535 -65535 -65535 -65535 -65535 -65535 -65535 -65535 
-65535 -65535 -65535 -65535 -65535 -65535 -65535 -65535 -65535 
-65535 -65535 1 -65535 0.70709666667 1 1 -65535 -65535 
1 -65535 -65535 1 -65535 -65535 -65535 1 -65535 
-65535 -65535 -65535 -65535 -65535 1 -65535 1 -65535 
1 -65535 1 -65535 -65535 1 -65535 -65535 -65535 
-65535 -65535 -16.3472 -65535 0.70709666667 -65535 -65535 -65535 -65535 
-65535 -65535 -33.9086 -65535 -65535 -65535 -65535 -65535 -65535 
-65535 -65535 -65535 -65535 1 -65535 -65535 -65535 -65535 
1 -65535 -65535 -65535 -65535 -65535 -65535 -65535 -65535 
-65535 1 1 -65535 -65535 -65535 -65535 -65535 -65535 
-65535 -65535 -65535 -65535 -65535 -65535 -65535 -65535 -65535 
-65535 -65535 -65535 1 -65535 -65535 1 -65535 -65535 
-65535 -65535 -65535 -42.153666667 -65535 -65535 -65535 1 -65535 
-65535 -10.961133333 -65535 -0.11118 -65535 -65535 -65535 -65535 -65535 
-65535 1 -65535 -65535 1 -65535 1 -65535 -65535 
-65535 1 1 -65535 -65535 -65535 -65535 -65535 -65535 
-65535 -65535 -65535 -65535 -65535 -65535 1 -65535 -65535 
-65535 -65535 -65535 -65535 -65535 -65535 -65535 -65535 1 
-65535 -65535 -65535 -65535 1 -65535 -65535 -65535 -65535 
-65535 -65535 1 -65535 -65535 1 -65535 -65535 -65535 
-65535 -65535 -65535 -65535 -65535 -65535 -65535 -65535 1 
1 1 -65535 -65535 -65535 -65535 -65535 -65535 -65535 
-65535 -65535 -65535 1 -65535 -65535 -65535 -65535 1 
-65535 -65535 -65535 -65535 -65535 -65535 -65535 -65535 -65535 
-65535 0.36715733333 1 -65535 -65535 -65535 -65535 -6.8268666667 -65535 
0.82897266667 -58.574066667 -65535 -24.9358 -65535 -9.9501333333 -65535 -65535 -65535 
-65535 -65535 -65535 -65535 1 1 -65535 -65535 -65535 
-65535 -65535 1 -65535 1 -65535 -65535 -65535 -32.372 
-38.348066667 -65535 -65535 -65535 -65535 -65535 -65535 -65535 -65535 
-65535 -65535 -65535 -65535 -65535 -65535 -65535 -65535 -65535 
-65535 -65535 -65535 -65535 1 1 1 -65535 1 
-65535 -65535 -65535 -65535 -65535 -65535 -65535 -65535 -65535 
-65535 -65535 -65535 -65535 -65535 -65535 -65535 -29.4372 -5.46118 
-65535 1 -65535 -65535 -65535 -65535 -65535 -65535 1 
-65535 -65535 -65535 -65535 -65535 -65535 1 -65535 -65535 
-65535 1 -65535 -65535 -65535 -65535 -65535 -65535 1 
-65535 -65535 -65535 1 -65535 -65535 -65535 1 1 
-65535 -65535 -65535 -65535 -65535 -65535 -65535 -65535 -65535 
-65535 -65535 -65535 -65535 -65535 -65535 -65535 -65535 -65535 
1 1 -65535 1 -65535 -65535 -65535 -65535 -65535 
-65535 -65535 -65535 -65535 -65535 -65535 -65535 -65535 -65535 
-65535 -65535 -65535 -65535 -65535 1 -47.176333333 1 -65535 
1 -65535 -65535 -65535 1 -65535 -65535 -65535 -65535 
-65535 -65535 -45.940933333 -65535 -65535 1 -65535 1 -65535 
-65535 1 1 -65535 1 -65535 -65535 -65535 1 
-65535 -38.705133333 -65535 -65535 -65535 1 -65535 -65535 -65535 
-65535 -65535 -65535 1 -65535 -65535 -65535 -65535 -65535 
1 -65535 -65535 1 1 1 -65535 -65535 -65535 
1 -65535 -65535 -65535 -65535 -65535 -65535 -65535 1 
1 -65535 1 1 -65535 -65535 -65535 -65535 -65535 
-65535 -65535 -65535 -65535 -65535 -65535 -65535 -65535 -65535 
-65535 -65535 -65535 -65535 -65535 -65535 -65535 -65535 -65535 
-65535 -65535 -65535 -65535 -65535 -65535 -65535 1 -65535 
1 -65535 -65535 1 1 -65535 -65535 -65535 -65535 
-65535 -65535 1 -65535 -65535 -65535 -65535 -65535 1 
-65535 -65535 1 1 1 -65535 -65535 -65535 -65535 
-65535 -65535 1 1 -65535 -65535 -65535 -65535 -65535 
-65535 -65535 -65535 1 -65535 -65535 -65535 -65535 1 
-65535 -65535 -65535 -65535 -65535 -65535 -65535 -65535 -65535 
-65535 -65535 -65535 1 -65535 -65535 -0.48340666667 -65535 1 
-65535 -65535 1 -65535 1 -65535 -65535 -65535 -65535 
-65535 -32.217266667 -65535 -65535 -65535 -65535 -65535 -65535 -65535 
-65535 1 -65535 -65535 1 1 -65535 -65535 -65535 
-65535 -65535 1 1 1 1 -65535 -65535 -65535 
1 -65535 1 -65535 -65535 -65535 -65535 -65535 -65535 
-65535 -65535 -65535 -65535 -62.268 -65535 -65535 -65535 1 
1 1 1 -65535 -65535 -65535 -65535 -65535 1 
-65535 -65535 -65535 -65535 -65535 -65535 -65535 -65535 1 
-65535 1 -65535 -65535 -65535 1 -65535 1 -65535 
-65535 -65535 1 1 -65535 -65535 -65535 1 1 
-65535 -65535 -65535 -65535 -65535 -65535 1 1 1 
-65535 -65535 -65535 1 -65535 -65535 -65535 -65535 -65535 
-28.937 -65535 -57.9332 -65535 -65535 -58.510466667 1 -65535 -65535 
-65535 -65535 0.36715733333 -48.301933333 -65535 -65535 1 1 -65535 
-65535 1 -65535 -65535 -65535 1 -65535 -65535 -65535 
-65535 1 -65535 -65535 1 -65535 1 -65535 1 
-65535 -65535 -65535 -65535 -65535 -65535 -65535 -65535 -65535 
-65535 -65535 -65535 -65535 -65535 1 -65535 -65535 1 
-65535 -65535 1 -65535 -65535 -65535 -65535 -65535 -65535 
-65535 -33.197466667 -65535 -0.67644666667 -35.943933333 -65535 -65535 -65535 -28.550066667 
-65535 -65535 -65535 -65535 -65535 1 -65535 -37.1508 -65535 
-65535 -65535 -65535 -65535 -65535 -65535 -65535 1 -65535 
-65535 -65535 -65535 -65535 -65535 -65535 1 -65535 -65535 
-65535 -65535 -65535 -65535 -65535 -65535 -65535 -65535 -65535 
-65535 1 -65535 -65535 -65535 1 1 -65535 1 
-65535 -65535 -65535 -65535 -65535 1 1 -65535 -65535 
-65535 -65535 -65535 -65535 -65535 1 -65535 -65535 -65535 
-65535 1 1 -65535 -65535 1 -65535 -65535 -65535 
-65535 -65535 -65535 -65535 1 -65535 -65535 -65535 -65535 
-65535 1 -65535 -65535 -65535 -65535 -65535 -65535 -65535 
-65535 -65535 1 -65535 -65535 -65535 -65535 -65535 -65535 
1 -65535 1 -65535 -65535 -65535 -65535 1 -65535 
-65535 -65535 -65535 -65535 -65535 -65535 -65535 -65535 -65535 
1 -65535 -65535 -65535 -65535 -65535 -65535 -65535 -65535 
-65535 1 -65535 -65535 -65535 -65535 -65535 -65535 -65535 
-65535 -65535 1 -65535 -65535 1 -65535 -65535 -65535 
1 -65535 1 -65535 -65535 -65535 -65535 -65535 -65535 
-65535 -65535 1 -65535 -65535 -65535 -65535 -65535 -65535 
-65535 -65535 1 -65535 -65535 -1.9778466667 -65535 -25.9972 -65535 
-65535 -65535 -34.146733333 -65535 -65535 -10.0494 -65535 -40.657266667 -65535 
-65535 -65535 -65535 -42.155666667 -38.320933333 -65535 -65535 1 -65535 
-65535 -65535 -65535 -65535 -65535 -65535 1 -65535 -65535 
-65535 1 -65535 -65535 -9.4730666667 -65535 1 -65535 -65535 
-65535 -65535 -65535 -65535 -65535 -65535 1 -65535 -65535 
-65535 -65535 -65535 -65535 -65535 -65535 -65535 -65535 -65535 
-65535 -65535 -65535 1 -65535 -65535 -65535 1 -65535 
1 -65535 -65535 -65535 -65535 -65535 -65535 -65535 -65535 
-65535 -65535 1 -65535 -65535 -65535 -65535 -65535 -65535 
-65535 -65535 -65535 -65535 -65535 -65535 1 -65535 -65535 
-65535 -14.699666667 -65535 1 -65535 -65535 1 1 -65535 
-65535 -65535 -65535 -58.924066667 1 -16.842666667 -65535 -65535 -65535 
-65535 -65535 -65535 -65535 -65535 -65535 -65535 -65535 -65535 
-65535 -65535 -65535 -65535 1 -44.426866667 -65535 -65535 -65535 
-65535 -65535 -65535 -57.7188 -65535 1 -65535 1 -65535 
-65535 -65535 1 1 -65535 -65535 -65535 -65535 -65535 
-65535 -65535 -65535 -20.738466667 -65535 -65535 -65535 -65535 -0.047213333333 
-65535 -24.5848 -65535 -65535 -65535 -65535 -65535 -65535 1 
1 -65535 -65535 -65535 -65535 -65535 -65535 -65535 1 
-65535 -65535 1 1 1 -65535 -65535 1 -65535 
-65535 1 -65535 -65535 -65535 -65535 -65535 -65535 -65535 
-65535 -65535 -65535 -65535 -65535 1 -65535 -65535 1 
-65535 -65535 -65535 1 -65535 -65535 -65535 -17.516133333 -65535 
-65535 -65535 -65535 -65535 -65535 -65535 -65535 -65535 -65535 
-65535 -65535 -65535 -65535 -65535 -65535 -65535 -65535 -65535 
1 1 1 1 -65535 -65535 -65535 -65535 -65535 
-65535 -65535 -65535 -65535 -65535 -65535 1 1 -65535 
1 -65535 -65535 -65535 -65535 -65535 1 -65535 -65535 
-0.031933333333 0.55183066667 0.60858533333 -65535 -65535 -65535 -65535 -65535 -65535 
-65535 -65535 -65535 -65535 1 -65535 -65535 1 -65535 
-65535 -65535 -65535 -65535 1 -51.430066667 -65535 -65535 -65535 
-65535 -65535 -65535 -65535 1 -65535 -65535 -65535 -65535 
-65535 -65535 -65535 -65535 -65535 -65535 -65535 -65535 -65535 
-0.32126 -29.8846 -1.4512 -65535 -65535 -65535 1 -65535 -65535 
-65535 1 -65535 -65535 -65535 -65535 -65535 -48.580866667 -65535 
-42.8566 -65535 -50.272733333 -65535 -53.824933333 -65535 -65535 -65535 -65535 
-65535 -65535 -65535 1 -65535 1 1 -65535 -65535 
-65535 -65535 -65535 -65535 -65535 -65535 -65535 -65535 -65535 
-65535 -65535 -65535 -65535 -65535 1 1 -65535 -65535 
-65535 -65535 1 -65535 -65535 -65535 -65535 -65535 -65535 
-65535 -65535 -65535 -65535 -65535 -65535 -65535 -65535 -65535 
-65535 -65535 -65535 -65535 -50.822866667 -65535 -65535 1 -65535 
1 1 -65535 -65535 -65535 1 -65535 -65535 1 
-65535 -65535 -65535 -65535 0.10903333333 -65535 -29.1908 -65535 -65535 
-65535 1 1 -65535 -65535 -65535 -65535 -65535 -65535 
1 -65535 -65535 -65535 -65535 -65535 -65535 -65535 -65535 
-65535 -65535 -65535 1 -65535 -65535 -65535 -65535 -65535 
-6.0952666667 -65535 -65535 -65535 -65535 -65535 -65535 -65535 -65535 
-65535 -65535 -65535 -65535 -65535 1 -65535 -65535 -37.554933333 
-65535 -65535 -65535 -65535 -65535 -55.606333333 -50.013733333 -65535 -65535 
-65535 -65535 -41.488533333 -40.415666667 -65535 -65535 -59.518066667 -65535 1 
-65535 -65535 -65535 -65535 -65535 1 -65535 1 -65535 
-65535 -65535 -65535 -65535 -65535 -65535 1 -65535 -65535 
1 -65535 -65535 -65535 -65535 -65535 -65535 -65535 1 
-65535 -65535 -65535 -65535 1 -65535 -65535 -65535 1 
-65535 -65535 -65535 1 -65535 -65535 -65535 1 -65535 
-65535 -65535 1 -65535 -65535 -65535 -65535 -65535 -65535 
-65535 1 1 -65535 -65535 -65535 -65535 -65535 -65535 
-65535 -65535 -65535 -65535 -65535 -65535 -65535 -65535 -65535 
-65535 -65535 -65535 -65535 -65535 -65535 -65535 -65535 1 
-65535 1 -65535 1 -65535 -65535 -65535 -65535 -65535 
-65535 -65535 1 -65535 -65535 -65535 -65535 1 -65535 
-65535 -65535 -65535 -65535 1 -65535 -65535 1 -65535 
-65535 -26.025733333 -65535 -32.861933333 -65535 -65535 -65535 -33.645333333 -65535 
1 -65535 -65535 -65535 -65535 -65535 -65535 -65535 -65535 
1 -65535 1 -65535 -65535 -65535 1 1 -65535 
1 -65535 -65535 -65535 -65535 1 1 1 -65535 
-65535 -65535 1 -65535 -65535 1 -65535 1 -65535 
-65535 -65535 -65535 -65535 -65535 -65535 -65535 -65535 1 
-65535 -65535 -65535 -65535 -65535 -65535 -65535 1 -65535 
-65535 -65535 -65535 1 1 1 -65535 -65535 1 
1 -65535 -65535 -65535 -65535 -65535 -65535 1 -65535 
1 -65535 -65535 -65535 1 -65535 -65535 1 -65535 
1 -65535 -65535 -65535 -65535 -65535 -65535 -65535 -65535 
-65535 -65535 -65535 -65535 -65535 -65535 -65535 -65535 -65535 
1 -65535 -65535 -65535 -65535 1 1 1 -65535 
-65535 -65535 -65535 -65535 -65535 1 -65535 -65535 1 
-65535 -65535 -65535 -65535 -65535 1 1 -65535 -65535 
-65535 -65535 -65535 -65535 1 -65535 -65535 -65535 -65535 
1 -33.074666667 -65535 -9.6778666667 -28.0706 -65535 -59.945666667 -42.881533333 -2.0256666667 
-8.1508 1 1 1 1 -65535 1 -65535 -65535 
1 -65535 -65535 -65535 -65535 -65535 -65535 -65535 -65535 
-65535 1 -65535 1 -65535 -65535 1 -65535 -65535 
1 -65535 -65535 -65535 -65535 -65535 -65535 1 1 
1 -65535 -65535 -65535 -65535 1 -65535 -65535 1 
1 -65535 -65535 -65535 -65535 -65535 -65535 -65535 -65535 
1 -65535 -65535 1 -65535 -65535 1 -65535 -65535 
1 -65535 -65535 -65535 -65535 -65535 -65535 -65535 1 
-36.942933333 -65535 -36.420466667 -65535 -65535 -65535 -36.741266667 -65535 -65535 
-65535 1 -65535 -65535 -65535 -65535 -65535 -65535 -65535 
-65535 -65535 -65535 -65535 1 1 -65535 -65535 -65535 
-65535 -65535 -65535 -65535 1 1 -65535 1 -65535 
-65535 -65535 -65535 -65535 -65535 -65535 -65535 1 -65535 
-65535 -65535 -65535 -65535 -65535 -65535 -65535 1 -65535 
1 -65535 -65535 -65535 -65535 -65535 -32.777 -65535 -65535 
-37.036533333 -65535 -65535 -65535 -65535 -65535 1 1 -65535 
-53.778866667 -65535 -65535 -65535 -65535 -65535 -65535 -65535 -65535 
-65535 -41.8062 -65535 1 -65535 -65535 -65535 -65535 -65535 
-65535 -65535 -0.48340666667 -65535 -37.883466667 -65535 -65535 -65535 -65535 
1 -65535 -65535 -65535 -65535 -65535 1 1 -65535 
-65535 -65535 -65535 -65535 -38.654733333 -39.5054 -65535 1 -65535 
-65535 -65535 -65535 -65535 -65535 -65535 -65535 -65535 -65535 
-65535 -65535 -65535 -65535 -65535 -65535 -65535 -65535 -65535 
-43.0024 -65535 -44.7142 -65535 -65535 -65535 -65535 1 1 
1 -65535 -65535 1 -65535 -65535 -65535 -65535 -40.636666667 
-7.8951333333 -65535 -22.769133333 -2.2894666667 -65535 -6.0993333333 -65535 -2.9423 -0.072206666667 
-65535 -65535 -65535 -65535 -1.9238733333 -5.5917466667 0.19574666667 -1.4049933333 -65535 
-65535 -65535 1 -65535 -65535 -65535 -65535 -65535 -65535 
-65535 1 -65535 1 -65535 -65535 -65535 1 -65535 
-65535 -65535 1 -65535 1 -65535 -65535 -65535 1 
-65535 -65535 1 -65535 -65535 -65535 -65535 -65535 -65535 
-65535 -65535 -65535 1 -65535 1 -65535 -65535 -65535 
1 -65535 -65535 -65535 -65535 -65535 1 -65535 -65535 
-65535 -65535 1 -65535 -65535 -65535 -65535 -65535 1 
1 -65535 1 -65535 -65535 -65535 -65535 -65535 -65535 
-65535 -65535 -65535 -65535 -65535 -65535 -65535 -65535 1 
-65535 -65535 -65535 -65535 -65535 1 -65535 1 -65535 
-65535 -65535 -65535 -65535 -65535 -65535 -65535 -65535 -65535 
-65535 -65535 -65535 -65535 1 -65535 -65535 -65535 -65535 
-65535 -65535 -65535 -65535 -65535 1 -65535 -65535 -65535 
-65535 -65535 1 1 1 -65535 -65535 -65535 -65535 
-65535 -65535 -65535 -65535 -65535 -65535 -65535 -65535 -65535 
-65535 -65535 -65535 -65535 -65535 -65535 -65535 1 -65535 
-65535 -65535 -65535 -65535 -65535 1 -65535 -65535 -65535 
-65535 -65535 -38.021933333 -37.543 -65535 -65535 -65535 -65535 -65535 
1 -65535 1 -65535 1 -65535 -65535 1 -65535 
-65535 -65535 -65535 -65535 -65535 -65535 -65535 -65535 -65535 
-65535 -65535 -65535 -65535 -65535 -65535 -65535 -65535 1 
1 -65535 -65535 -65535 -65535 1 -65535 -65535 -65535 
-65535 -65535 -65535 -65535 -65535 1 1 1 1 
-65535 -65535 -65535 -65535 1 -65535 -65535 -65535 -65535 
-65535 -65535 -37.852933333 -35.946933333 -65535 -65535 1 -65535 1 
-65535 1 -65535 -65535 -65535 -65535 -65535 -65535 -65535 
-65535 -65535 -65535 -65535 -65535 -50.365733333 -65535 -65535 1 
-65535 -65535 -65535 -65535 -65535 -65535 -65535 -65535 -65535 
-65535 -65535 -65535 -65535 -65535 -65535 -65535 -65535 -65535 
-65535 -65535 -65535 -65535 -65535 -65535 1 -65535 -65535 
-65535 -65535 -65535 1 -65535 -65535 -65535 -65535 -65535 
-65535 -65535 -65535 -65535 -65535 1 -65535 -65535 -65535 
-65535 -65535 -65535 -65535 -65535 -65535 -65535 1 -65535 
1 -65535 -65535 -65535 1 -65535 -65535 -65535 -65535 
-65535 -65535 -65535 -65535 -65535 -65535 -4.3613666667 -69.469333333 1 
-65535 -65535 -65535 -65535 1 -65535 -65535 -23.920466667 1 
-65535 -65535 -65535 -65535 1 -65535 -65535 -65535 -65535 
1 1 1 -65535 -65535 -65535 -65535 -65535 -65535 
-65535 -65535 -65535 -65535 -65535 -65535 -65535 -65535 -65535 
-65535 -65535 -65535 -65535 -65535 -65535 -65535 -65535 -65535 
-65535 -65535 -65535 -65535 -65535 -65535 1 -65535 -65535 
-65535 -65535 -65535 -65535 -65535 -65535 -65535 -65535 -65535 
-65535 1 -65535 -65535 -65535 -34.277466667 1 -65535 1 
-65535 1 -65535 -65535 -65535 -65535 -65535 -65535 -65535 
-65535 1 1 -65535 -65535 -65535 -65535 -65535 -65535 
1 1 -65535 -65535 1 -65535 -65535 -65535 -65535 
1 -65535 -65535 -65535 1 -65535 -65535 1 -65535 
1 1 -65535 -65535 -65535 -65535 -65535 -65535 1 
-65535 -65535 -65535 -65535 -65535 1 -65535 1 1 
-65535 -43.7082 -41.8624 -65535 -65535 -65535 -65535 1 -65535 
-65535 -65535 -65535 -65535 -65535 -65535 -65535 -65535 -65535 
-65535 -65535 -65535 -65535 -65535 -65535 -65535 -65535 -65535 
1 -65535 -65535 -65535 -65535 -65535 -65535 -65535 -65535 
-65535 -65535 -65535 -65535 -65535 -65535 -65535 1 -65535 
1 -65535 1 -65535 1 -65535 1 1 -65535 
-65535 1 -65535 -65535 1 -65535 -65535 -65535 -65535 
-65535 -65535 -65535 -65535 -65535 -65535 1 -65535 -65535 
-65535 -65535 -65535 -65535 -65535 -65535 -65535 1 -65535 
-65535 -65535 -65535 -65535 -65535 -65535 -65535 -65535 -65535 
-65535 -65535 -65535 -65535 -65535 1 -65535 -65535 1 
-65535 -65535 -15.077 -65535 1 -65535 -65535 -65535 -65535 
-65535 -65535 -65535 -65535 1 -65535 1 1 -65535 
-65535 -65535 -65535 1 -65535 -65535 -65535 -65535 1 
-65535 1 -65535 -65535 -65535 -65535 -65535 -65535 -65535 
-65535 -65535 -65535 -65535 -65535 -65535 -65535 -65535 -65535 
-40.4264 -65535 1 -65535 -65535 -65535 1 -65535 -65535 
-65535 -65535 1 -65535 -65535 -65535 -65535 -65535 1 
-65535 1 -65535 1 -65535 1 -65535 1 -65535 
-65535 -65535 1 -37.547 -65535 -65535 -65535 -65535 -65535 
-65535 1 -65535 -65535 -65535 1 -65535 1 -65535 
-65535 -65535 -65535 -65535 1 -65535 -22.4172 -65535 -65535 
-65535 -65535 -65535 -11.7828 -65535 -65535 -65535 -65535 -65535 
-65535 -65535 1 -65535 -65535 -65535 1 1 -65535 
-65535 -65535 -65535 -65535 -65535 -65535 -65535 -65535 1 
-65535 -65535 -65535 -65535 1 -65535 -65535 -65535 1 
1 -65535 -65535 -65535 -65535 -65535 -65535 -65535 -65535 
-65535 1 -65535 -65535 -65535 -65535 1 -65535 -65535 
-65535 -65535 -65535 -65535 -65535 -65535 -65535 -65535 -65535 
-65535 -65535 -65535 -65535 -65535 -65535 -34.211266667 -65535 -65535 
-65535 -65535 1 -65535 -65535 -65535 -65535 -65535 -65535 
-65535 -65535 1 -65535 -65535 1 1 -65535 -65535 
-65535 -65535 -65535 -65535 -65535 -65535 -65535 -65535 -65535 
-65535 -65535 1 1 -65535 -65535 -65535 -65535 1 
-65535 -65535 -65535 -65535 1 -65535 -65535 -65535 -65535 
-65535 -65535 -65535 -65535 -65535 -65535 -65535 -65535 -65535 
-65535 -65535 1 -65535 1 -65535 1 -65535 -65535 
-65535 -65535 -65535 -65535 -65535 -65535 -65535 -65535 -65535 
-65535 -65535 -65535 -65535 -65535 -65535 -65535 1 -65535 
-65535 1 -65535 -65535 -65535 -65535 -65535 -65535 -65535 
-65535 -65535 -65535 -65535 -65535 -65535 -65535 -65535 -65535 
-65535 -65535 1 -65535 -65535 -65535 -65535 -65535 -65535 
-65535 -65535 1 -65535 -65535 -65535 -65535 -65535 -65535 
-65535 1 1 -65535 -65535 -65535 1 -65535 -65535 
-65535 -65535 -65535 -65535 -65535 -65535 -65535 -65535 -65535 
0.26374666667 -65535 -65535 -65535 -65535 -65535 -65535 1 -65535 
1 -65535 1 1 1 -65535 -65535 -65535 -65535 
-65535 1 -65535 -65535 -65535 -65535 -65535 1 -65535 
-65535 1 -65535 -65535 1 -65535 -65535 -65535 -65535 
-65535 1 1 -65535 -65535 -65535 -65535 -65535 -65535 
1 -65535 -65535 1 -65535 -65535 1 -65535 -65535 
-65535 1 -65535 -65535 -65535 -65535 -65535 -65535 -65535 
1 -65535 -65535 -65535 -65535 1 1 1 -65535 
-65535 -65535 -65535 -65535 -65535 -65535 -65535 -65535 -65535 
-65535 -65535 -65535 -46.1584 -65535 -65535 -65535 -65535 -65535 
-65535 -65535 -65535 -65535 -65535 -27.836133333 -65535 1 1 
1 -65535 1 -65535 -65535 1 -65535 -65535 -65535 
1 -65535 -65535 -65535 -65535 -65535 -65535 -65535 -65535 
1 -65535 -65535 -65535 -65535 -65535 -65535 -65535 -65535 
-65535 -65535 -65535 -65535 -65535 -65535 -65535 -65535 -65535 
-65535 -65535 -65535 -65535 -65535 -65535 -65535 -65535 -65535 
-65535 -65535 -65535 -65535 1 0.36724666667 -65535 -65535 -65535 
-57.1772 -65535 1 -65535 1 -65535 -65535 -65535 -65535 
-65535 -65535 -65535 -65535 -65535 -65535 -65535 -65535 -65535 
-65535 -65535 -65535 -65535 1 -65535 -65535 1 1 
-65535 -65535 -65535 -65535 1 -65535 -65535 -65535 -65535 
-65535 -65535 -65535 -65535 1 -65535 1 -65535 -65535 
-65535 -65535 1 -65535 -65535 -65535 -65535 1 -65535 
-65535 -7.4914666667 -56.728933333 -65535 -65535 -65535 1 -65535 -65535 
-65535 -65535 -65535 -65535 -65535 -65535 -65535 1 -65535 
-65535 -65535 -65535 -65535 -65535 -65535 -65535 1 -65535 
-65535 -65535 -65535 1 -65535 1 -65535 -65535 -65535 
-65535 -65535 -65535 -65535 -65535 -65535 -65535 -65535 -65535 
-65535 -65535 -65535 -65535 -65535 -65535 -65535 -65535 -65535 
-65535 -65535 -65535 -65535 -65535 -0.0251 -65535 -65535 -65535 
-65535 -65535 1 -65535 -65535 -65535 -65535 1 -65535 
-65535 -65535 -65535 -65535 1 -65535 1 -65535 -65535 
-65535 -65535 -65535 -65535 -56.690866667 -65535 -65535 -65535 -65535 
-23.8632 -65535 -65535 -28.6984 -65535 -65535 -65535 -65535 -65535 
-65535 -65535 -65535 -60.2018 -65535 -65535 -65535 -65535 -59.7822 
-65535 -65535 -65535 -65535 1 -65535 -65535 -65535 -65535 
-65535 -65535 -65535 -65535 -65535 -65535 1 -65535 -65535 
-65535 -65535 -65535 1 -65535 -65535 -65535 -65535 -65535 
-65535 -65535 -65535 -65535 -65535 1 -65535 -65535 -65535 
-65535 -65535 -65535 -65535 -65535 -65535 -65535 -65535 -65535 
-65535 -65535 -65535 1 -65535 -65535 -65535 -65535 -65535 
-65535 -65535 -65535 -59.5768 1 -65535 -1.6276666667 -65535 -65535 
-2.8568266667 -65535 -65535 -65535 -65535 -65535 -65535 -65535 -65535 
-65535 -65535 -65535 -65535 -65535 1 -65535 -65535 -65535 
-65535 -65535 -65535 -65535 -65535 -65535 -65535 -65535 -65535 
-65535 -65535 1 1 -65535 -65535 -65535 -65535 -65535 
1 -65535 -65535 -65535 -65535 -65535 -65535 1 -65535 
-65535 -65535 -65535 1 -65535 -65535 -65535 -65535 -65535 
-65535 -65535 -65535 -65535 1 1 -65535 -65535 -65535 
-65535 -65535 -65535 -65535 -65535 -65535 -65535 -65535 -65535 
-65535 1 -65535 -65535 -65535 -65535 -65535 -65535 -65535 
-65535 -65535 -65535 -65535 -65535 -65535 1 -65535 -65535 
-65535 -65535 -65535 -65535 -65535 -65535 1 -65535 -65535 
-65535 1 -65535 -65535 -65535 -65535 1 -65535 -65535 
-65535 -65535 -65535 -65535 1 -65535 -65535 -65535 -65535 
-65535 -65535 -65535 -53.7992 -65535 -65535 -65535 -65535 1 
1 -65535 -65535 -65535 1 -65535 -65535 -65535 -65535 
-65535 -65535 -65535 -65535 -65535 -65535 -65535 -65535 1 
-65535 -65535 -65535 -65535 -65535 -65535 -65535 -65535 -65535 
-65535 -65535 -65535 -65535 -33.617 -65535 -52.6562 -65535 -65535 
-65535 -13.614733333 -65535 -65535 -65535 1 -65535 -65535 1 
1 -65535 -65535 -65535 -65535 1 -65535 1 -65535 
-65535 1 -65535 -65535 -65535 -65535 -65535 -65535 -65535 
-65535 -65535 1 -65535 -65535 -65535 -65535 -65535 -65535 
1 -65535 -65535 -65535 -65535 -65535 -65535 -65535 -65535 
-65535 -65535 -65535 -65535 -65535 -65535 -65535 -65535 1 
-65535 -65535 -65535 1 -65535 -65535 -65535 -65535 -65535 
-65535 -65535 1 -65535 -65535 -33.719066667 -65535 -28.3992 -65535 
-65535 -65535 -65535 0.30532 -65535 -2.1676266667 0.05132 0.63398666667 -51.3528 
-65535 -65535 -65535 -65535 1 -65535 -65535 -65535 -65535 
-65535 1 -65535 1 1 -65535 -53.770066667 -65535 -65535 
-65535 -65535 -65535 -65535 -65535 -15.266266667 -65535 -65535 -65535 
-65535 1 -65535 -65535 -65535 -65535 -65535 -65535 -65535 
-65535 -65535 -65535 -65535 -65535 -65535 -65535 -65535 -65535 
-65535 1 -65535 -65535 -65535 -65535 -65535 -65535 -65535 
-65535 -65535 1 1 1 -65535 -65535 -65535 -65535 
-65535 -65535 -65535 1 -65535 -65535 -65535 -65535 -65535 
-65535 -65535 -65535 -65535 1 -65535 -65535 -50.447666667 -65535 
-65535 -65535 -65535 -65535 -65535 -65535 -65535 -65535 -65535 
-65535 -65535 -65535 -65535 -65535 -65535 -65535 -65535 -65535 
-65535 -65535 -65535 -34.6414 -65535 -65535 -65535 -65535 1 
-65535 -65535 -65535 -65535 -56.8586 -65535 -65535 -65535 -65535 
1 1 -65535 -65535 1 -65535 1 -7.4593333333 0.05972 
0.742376 -65535 1 -65535 -65535 -65535 -65535 -65535 -65535 
-65535 -65535 1 -13.469666667 -17.5278 -65535 -65535 -65535 -65535 
-65535 1 -65535 1 -65535 -65535 -65535 -65535 1 
-65535 -65535 -65535 -65535 -65535 -65535 -65535 -65535 -33.837533333 
1 1 -65535 -65535 -65535 -65535 -65535 -65535 -65535 
-65535 1 -65535 -65535 -65535 -65535 -24.698933333 -65535 -65535 
-65535 -65535 1 -65535 -65535 -65535 -65535 -65535 -65535 
-65535 -65535 -65535 -65535 -65535 -65535 -0.016826666667 -65535 1 
-65535 -65535 -65535 -65535 -65535 -65535 -65535 -65535 -65535 
-65535 -65535 -65535 -20.281866667 1 -65535 -65535 -65535 1 
-65535 -65535 1 -65535 -65535 -65535 -65535 1 -65535 
-9.6457333333 -65535 -65535 1 -65535 -65535 -65535 -65535 -65535 
-65535 -65535 -65535 -65535 1 -65535 -65535 -65535 -65535 
1 -65535 -65535 -65535 -65535 1 1 -65535 -65535 
-65535 -65535 -65535 -65535 -65535 -65535 1 -65535 -65535 
-65535 -65535 -65535 -65535 -65535 -65535 -65535 -65535 -65535 
-65535 -65535 -65535 -65535 -65535 1 1 -65535 1 
-65535 -65535 -65535 -65535 -65535 -65535 -65535 -65535 -65535 
-65535 -65535 -65535 -65535 -65535 -65535 -65535 -65535 -65535 
-65535 -65535 -65535 -65535 -65535 -65535 -65535 -65535 -65535 
-65535 -65535 -65535 -65535 -65535 -65535 -65535 -65535 -65535 
-65535 -65535 -65535 -65535 -65535 1 -65535 -65535 1 
-65535 -65535 -65535 -65535 -65535 -65535 -65535 -65535 -65535 
-65535 -65535 -65535 -65535 1 -65535 -65535 -65535 -60.651 
-65535 -65535 -65535 -65535 -56.671333333 1 -65535 -7.9315333333 -65535 
-27.877733333 -65535 -65535 -65535 -65535 -65535 -62.7948 -65535 -65535 
-65535 -65535 -65535 -65535 -65535 -65535 -65535 -65535 -65535 
-65535 -65535 -65535 -65535 -65535 -65535 1 -65535 1 
-65535 -65535 -65535 1 1 -65535 -65535 -65535 -65535 
-65535 -65535 -65535 1 -65535 -65535 -65535 -65535 -65535 
-65535 -65535 -65535 -65535 1 -65535 -65535 -65535 -65535 
-65535 -65535 -65535 -65535 -65535 -65535 -65535 1 -65535 
-65535 -65535 -65535 -65535 -65535 -65535 -65535 -65535 -65535 
-65535 -65535 -65535 -65535 1 -65535 -65535 -65535 -65535 
-65535 -65535 -65535 -65535 -65535 -65535 -65535 -65535 -65535 
-65535 -65535 -65535 -65535 -65535 -65535 -65535 -65535 -65535 
-65535 -65535 -65535 -65535 -65535 -65535 -65535 -65535 -65535 
-65535 -65535 1 -65535 -42.792 -65535 -51.542466667 -34.453866667 -65535 
-65535 -65535 -65535 -65535 -65535 1 -65535 -65535 -65535 
-65535 -65535 -65535 -65535 -65535 -65535 -47.442733333 -65535 -65535 
-65535 -65535 1 -65535 -65535 -65535 1 -65535 1 
-65535 1 -65535 -65535 -65535 -67.276666667 -65535 -36.467266667 -65535 
-65535 -65535 -65535 -65535 -65535 -65535 -65535 -65535 -65535 
-65535 -65535 -65535 -65535 -65535 -65535 -55.1712 -65535 -65535 
-65535 -65535 -65535 -10.298266667 -65535 -65535 -65535 -65535 1 
-65535 -65535 -65535 -65535 -65535 -65535 1 -65535 1 
-65535 -65535 -65535 -65535 -65535 -65535 -65535 -65535 -65535 
-65535 -65535 1 -65535 -65535 -65535 -65535 -65535 -65535 
1 -65535 -65535 -65535 -65535 1 -65535 -65535 -65535 
-65535 -65535 -65535 -65535 -65535 -65535 -65535 -65535 -65535 
-65535 -0.016793333333 -65535 -65535 1 -65535 -65535 1 -65535 
1 1 -65535 -65535 -65535 -65535 -65535 -65535 -65535 
-65535 -65535 -65535 -65535 -65535 -65535 -65535 -65535 1 
-65535 -65535 -65535 -65535 -65535 -65535 1 -65535 -65535 
-65535 -26.408733333 -65535 -65535 -65535 -65535 1 -65535 -65535 
-65535 -65535 -65535 1 -65535 -25.3876 -65535 -65535 -65535 
-65535 -65535 -65535 -65535 -65535 -65535 -65535 -65535 -65535 
-65535 -65535 -65535 -65535 -65535 -65535 -65535 -65535 -65535 
-65535 -65535 -65535 -65535 -65535 -65535 -65535 -65535 -65535 
-65535 -61.151733333 -1.56178 -65535 -65535 -65535 -65535 -65535 -65535 
-65535 -65535 -65535 1 -65535 -65535 -65535 -65535 -65535 
-39.456866667 -65535 -65535 -65535 -65535 -65535 -30.324733333 -65535 -3.9690733333 
-65535 1 1 -65535 -65535 1 -65535 -65535 -65535 
-65535 -65535 -65535 -65535 -58.5462 -25.226733333 -21.0972 -65535 -37.9866 
-54.8028 -65535 -65535 -65535 -65535 1 -65535 -65535 -65535 
-65535 -65535 -65535 1 -65535 -65535 -65535 -65535 1 
-65535 -10.505066667 -20.965666667 -65535 -65535 -65535 0.39107666667 -65535 -65535 
-65535 -65535 -65535 -65535 -65535 1 -65535 -65535 -65535 
-65535 -65535 -65535 -65535 -65535 -65535 -65535 -65535 -65535 
-65535 -65535 -65535 -65535 -50.654866667 -32.9666 -65535 -65535 -65535 
-65535 1 -65535 -65535 -65535 -65535 -65535 -65535 -65535 
-65535 -65535 -65535 -65535 -65535 -65535 -65535 1 -65535 
-65535 -65535 -65535 -65535 1 1 -65535 1 1 
-65535 -65535 -65535 -65535 -65535 -65535 -65535 -65535 -65535 
-65535 -65535 1 1 -65535 -65535 -65535 -65535 -65535 
-65535 -65535 -65535 -65535 -65535 -65535 -65535 -65535 -65535 
-65535 -65535 -65535 1 1 -65535 -65535 -65535 -65535 
-65535 -65535 -5.9860666667 -65535 -65535 -26.839666667 -11.256066667 -31.506 -65535 
1 -65535 -65535 -65535 -65535 -65535 -65535 -65535 -37.738133333 
-65535 -65535 -65535 -65535 -65535 -65535 -65535 -65535 -65535 
-65535 -65535 -65535 -65535 -65535 -65535 -65535 -65535 -65535 
-65535 -65535 -65535 -47.4746 -65535 -65535 -65535 -65535 -65535 
-65535 -21.085266667 -65535 1 -65535 -65535 -65535 -65535 -65535 
-65535 -65535 -65535 -65535 1 -65535 -65535 -65535 -65535 
1 -65535 -65535 1 -65535 -65535 -65535 1 -65535 
-65535 -65535 -65535 -65535 1 -65535 -65535 1 -65535 
-65535 -65535 -65535 -65535 -65535 -65535 -65535 -65535 -65535 
-65535 -65535 -65535 -65535 -65535 -65535 -65535 -65535 -65535 
-65535 -65535 -65535 -65535 -65535 -65535 1 -65535 -65535 
-65535 -65535 -65535 -65535 -65535 -65535 -57.551866667 -65535 -65535 
-65535 1 -65535 -65535 -65535 -65535 -65535 -65535 -65535 
-65535 -42.074866667 -13.448733333 -65535 -65535 -65535 -65535 -65535 1 
-65535 -6.462 -65535 -65535 -65535 -65535 -65535 -65535 -65535 
-65535 -65535 -65535 -65535 -65535 -65535 -65535 -65535 -65535 
-65535 -65535 -65535 -65535 -58.436266667 -65535 -56.442133333 -65535 -65535 
-65535 -59.102533333 -65535 -65535 -65535 -65535 -65535 -65535 -65535 
-65535 -65535 -65535 -65535 -65535 -65535 -65535 -0.48754666667 -36.190666667 
-65535 -65535 -65535 -65535 -65535 -65535 -37.3252 -65535 -65535 
-65535 1 -65535 1 -65535 -65535 -65535 -65535 -65535 
-65535 -65535 -65535 -65535 -38.934733333 -65535 1 -65535 -65535 
-65535 -65535 -65535 -65535 -46.005066667 -65535 -65535 -65535 -65535 
-65535 -65535 -65535 -65535 -65535 -65535 -65535 -65535 -65535 
-65535 -65535 -65535 -65535 -65535 -65535 -65535 -65535 -65535 
-65535 1 -65535 -65535 -65535 -65535 -65535 -65535 -65535 
-65535 -65535 -65535 -65535 -65535 -65535 -65535 -65535 -65535 
-65535 -65535 -65535 1 -65535 -65535 -65535 1 -65535 
1 -65535 -65535 -65535 -65535 -65535 -65535 -65535 -65535 
-65535 -65535 -65535 -65535 -65535 -65535 1 -65535 1 
-65535 -65535 -65535 -65535 -65535 -65535 -65535 -65535 1 
-65535 1 -65535 -65535 -65535 -65535 -65535 -65535 -65535 
-65535 -65535 -65535 -65535 -65535 -65535 -65535 -65535 1 
-65535 -65535 -65535 -65535 -65535 -65535 -65535 -65535 -65535 
-43.636266667 -65535 -65535 -65535 -65535 -65535 -65535 -65535 -65535 
-65535 -65535 -65535 -65535 -65535 -65535 -65535 1 -65535 
-65535 -65535 -65535 -65535 -65535 -65535 -65535 -65535 -65535 
-65535 -65535 -59.9938 -65535 -65535 -65535 -65535 -65535 -65535 
-65535 -65535 -65535 -65535 1 -65535 -65535 -65535 1 
-65535 1 -65535 -65535 -65535 -65535 -65535 -65535 1 
-65535 -65535 -65535 -65535 -65535 -65535 -65535 -32.349466667 -65535 
-65535 -65535 -65535 -65535 -65535 -65535 -65535 -65535 1 
-65535 -65535 -65535 -65535 -65535 -65535 1 -65535 -65535 
-65535 -65535 -65535 1 -65535 -65535 -65535 -65535 -65535 
-65535 -65535 -65535 -65535 -62.951866667 -45.810466667 -65535 -65535 -65535 
-65535 1 -65535 -65535 -65535 -65535 -65535 -65535 1 
-65535 1 -65535 -65535 -65535 -65535 1 -65535 1 
1 -65535 -65535 -65535 -65535 -65535 -65535 -65535 1 
1 -65535 -65535 -65535 -65535 -65535 -65535 -65535 -65535 
-65535 -65535 -65535 -65535 -65535 -65535 1 -65535 -65535 
-65535 -65535 -65535 1 1 1 -65535 1 -65535 
-65535 -65535 -65535 -65535 -65535 -65535 -65535 -65535 1 
-65535 -65535 1 -65535 -65535 1 -65535 -65535 -65535 
0.88798866667 -65535 1 1 -65535 -65535 -65535 -0.40807333333 -65535 
-65535 -65535 -65535 -65535 1 -65535 -65535 -65535 -65535 
-65535 -65535 -65535 -65535 -65535 -65535 -65535 -65535 -65535 
-65535 1 -65535 -65535 -12.434066667 -65535 -65535 -65535 -65535 
-65535 -65535 -65535 -65535 -65535 -65535 -65535 -65535 -65535 
-65535 -65535 -65535 -65535 1 -65535 -65535 -65535 -65535 
-65535 -65535 -32.7274 -65535 1 -65535 -65535 -65535 -65535 
-65535 -65535 -65535 -65535 -65535 -65535 -30.2444 -65535 1 
-65535 -65535 -65535 -65535 -0.43701333333 -65535 -8.6222666667 -65535 -1.48204 
-12.034 -65535 -27.287 -65535 -65535 -65535 -65535 -65535 -65535 
-65535 1 1 -65535 -65535 -65535 -65535 1 -65535 
-65535 -65535 -65535 -65535 -36.3918 -65535 1 -65535 -65535 
-65535 -65535 -65535 -65535 -65535 -65535 -65535 1 -65535 
1 1 -65535 -65535 -65535 -65535 -65535 -65535 -65535 
-65535 -65535 -65535 -65535 -65535 -65535 -65535 -65535 -65535 
-65535 -65535 -65535 -65535 -65535 -65535 1 -65535 -65535 
-65535 -65535 -65535 -65535 -65535 -65535 -65535 1 -65535 
-65535 -65535 -65535 -65535 -65535 -65535 -65535 -65535 -65535 
1 -65535 -65535 -65535 -65535 -65535 -57.134466667 -65535 -65535 
-65535 -59.154666667 -65535 -65535 -65535 -65535 -65535 -65535 -65535 
-65535 -65535 -65535 -65535 -65535 -65535 -65535 -65535 -65535 
-65535 -65535 -65535 -65535 -65535 1 -65535 -65535 -65535 
1 -65535 -65535 -65535 -65535 1 -65535 -51.942066667 -65535 
-37.342933333 -54.2312 -65535 -65535 -65535 -65535 -65535 -65535 -65535 
-65535 -65535 -65535 -65535 -65535 1 -65535 -65535 -65535 
-65535 -65535 -65535 -65535 -65535 -65535 1 -65535 -65535 
-65535 -65535 -65535 -65535 -65535 -65535 -65535 -65535 -65535 
-65535 -65535 -65535 -65535 -65535 -65535 -23.2818 -65535 -65535 
-65535 -65535 1 -65535 -65535 -65535 -65535 -65535 -65535 
-65535 -65535 -65535 -65535 -65535 -65535 -65535 1 -65535 
-65535 -65535 -65535 -65535 -65535 -65535 -65535 0.9999650696 -65535 
-65535 -65535 -10.465866667 -3.3193 -0.36926 -65535 -65535 1 -65535 
1 -65535 1 -65535 -65535 -65535 -65535 1 -65535 
-65535 -65535 -65535 -65535 -65535 -65535 -65535 -65535 -65535 
-65535 1 -65535 1 -65535 -65535 1 -65535 -65535 
-65535 1 -65535 -65535 -24.787533333 -57.8146 -30.803 -65535 -65535 
-65535 -65535 -65535 -65535 -65535 -65535 1 1 -65535 
-65535 -65535 -65535 -65535 -65535 -65535 1 -65535 1 
-65535 -65535 -65535 1 -65535 -65535 -65535 1 -65535 
1 -65535 -65535 -65535 -65535 -65535 -57.563266667 -58.761733333 -65535 
1 -65535 1 -65535 -65535 -65535 -65535 -65535 -65535 
-65535 -65535 -65535 -65535 -65535 -65535 -65535 -65535 -65535 
-65535 -65535 -65535 -65535 -65535 -65535 -65535 1 -65535 
-65535 -45.549266667 -65535 -65535 -65535 -65535 1 -65535 -65535 
-65535 -65535 -65535 -65535 -65535 -65535 -65535 -65535 -65535 
-65535 -65535 -65535 -65535 -65535 -65535 1 -65535 -65535 
1 -65535 -65535 -65535 -65535 -65535 -65535 -65535 -65535 
-65535 -65535 1 -65535 -65535 -26.9322 -41.3032 -65535 -65535 
-65535 -65535 -65535 -65535 -65535 -65535 -65535 -65535 1 
-65535 -65535 -65535 -65535 1 -65535 -65535 -65535 -65535 
-65535 -65535 -65535 -65535 -65535 -65535 -65535 -65535 -65535 
-65535 -65535 1 1 -65535 -65535 1 -65535 1 
-65535 -65535 -65535 -65535 -65535 -65535 -65535 1 -65535 
-65535 -65535 -65535 -65535 -65535 -65535 -65535 -65535 -65535 
-65535 -65535 1 -65535 1 1 -65535 -65535 -65535 
-65535 -65535 -65535 -25.583333333 -56.557466667 -65535 -14.5926 -65535 -65535 
-65535 -65535 -65535 1 -65535 1 -65535 -65535 -65535 
-65535 -65535 -65535 1 -10.723 1 -54.908866667 -65535 -1.95318 
-65535 -65535 -65535 -65535 -65535 -65535 -65535 -65535 -65535 
-65535 -65535 -65535 -65535 -65535 -65535 -65535 -65535 -65535 
-65535 -65535 -65535 -65535 -65535 -65535 -65535 -65535 -65535 
-65535 1 -65535 -65535 -65535 -65535 -65535 1 -65535 
-65535 -65535 -65535 -65535 -25.697066667 -65535 -21.115466667 -65535 -65535 
-65535 -65535 -65535 -65535 -65535 -65535 -35.367933333 -65535 -65535 
-65535 -65535 1 -65535 1 -65535 -65535 -65535 -65535 
-65535 -65535 -65535 -65535 -65535 -65535 -65535 -65535 -65535 
-65535 -14.815533333 -65535 1 -65535 -5.7932666667 -67.25 -65535 -65.086866667 
-65535 -36.724066667 -49.732266667 -65535 -65535 -65535 -65535 -65535 -65535 
-65535 -65535 -65535 -65535 -65535 -65535 -65535 -65535 -65535 
-65535 -65535 -65535 -65535 -65535 -65535 -65535 -65535 -65535 
-65535 -65535 -2.2199 -1.7172333333 -35.750866667 -65535 -65535 -65535 -65535 
-65535 -19.524466667 -65535 -65535 -65535 -65535 -65535 -44.761533333 -65535 
-65535 -65535 -65535 -65535 -65535 -65535 -65535 -65535 -65535 
-65535 -65535 -65535 -65535 -65535 -65535 -65535 -65535 -65535 
-65535 -65535 -65535 -65535 1 -65535 -65535 -65535 -65535 
-65535 -65535 -65535 -65535 -65535 -65535 -65535 -65535 -65535 
1 -65535 -65535 -65535 -65535 -65535 -65535 -37.559 -65535 
-65535 -65535 -65535 -65535 -65535 -65535 -65535 -65535 -65535 
-65535 -65535 -65535 1 1 -65535 -65535 -65535 1 
-65535 -65535 -65535 1 -65535 -65535 -65535 -65535 -65535 
-4.0736933333 -65535 1 -65535 -65535 -65535 -65535 -65535 -65535 
-65535 -65535 -65535 -65535 -65535 -65535 -65535 -65535 -65535 
-65535 -65535 -65535 1 -65535 -65535 -65535 -65535 -65535 
-65535 -65535 -65535 -65535 -65535 -65535 -65535 1 -65535 
-65535 -65535 -65535 -65535 -65535 -65535 -65535 1 -65535 
-65535 -65535 -65535 -65535 -65535 1 -65535 -65535 -65535 
-65535 -65535 -65535 -65535 -65535 -65535 -65535 -65535 -65535 
-65535 -65535 1 -65535 -65535 -65535 -65535 -65535 1 
-65535 -65535 -65535 -65535 -11.333 -23.411666667 -65535 -6.4761333333 -22.9648 
-65535 -65535 -65535 -65535 -65535 -65535 1 -39.3222 -65535 
-65535 -16.062466667 -65535 -65535 -65535 -65535 -65535 -65535 1 
-65535 -65535 -65535 -65535 -40.655533333 -65535 -65535 -65535 -65535 
-65535 -65535 0.676724 -65535 -65535 -65535 -65535 -65535 -65535 
-65535 -65535 -65535 -65535 -37.942466667 -65535 -65535 -65535 -65535 
-65535 1 -65535 1 -65535 1 -65535 -65535 -65535 
-65535 -65535 -65535 -65535 -65535 -65535 -65535 -65535 -65535 
-65535 -65535 -65535 -65535 -65535 -65535 -65535 -65535 -65535 
-65535 -65535 -65535 -65535 -11.517533333 -65535 -65535 -65535 -65535 
-65535 -65535 -65535 -65535 -65535 -65535 -65535 -65535 -65535 
-65535 -65535 -65535 -65535 -65535 -65535 1 -65535 -65535 
-65535 -65535 -65535 -65535 1 -65535 -65535 -65535 -65535 
-65535 -65535 -65535 -65535 -65535 -65535 -65535 -65535 -65535 
-65535 -65535 -65535 -65535 1 1 -65535 -65535 -65535 
-65535 -65535 1 -65535 -65535 -65535 -65535 -65535 -65535 
-65535 -65535 -65535 -65535 -65535 -65535 -65535 -65535 -65535 
-65535 -65535 -65535 -65535 -65535 -65535 -65535 -65535 -65535 
-65535 -65535 -65535 1 -65535 1 1 -65535 -65535 
-65535 -65535 -65535 -65535 -65535 -17.811266667 -65535 -65535 -65535 
-65535 -65535 1 -65535 -12.4574 -1.1261 -65535 -65535 -65535 
-65535 -65535 -65535 -65535 -65535 -65535 -65535 -65535 -65535 
-65535 -65535 -65535 -65535 1 -65535 -65535 -65535 -65535 
-65535 -65535 -65535 -65535 -65535 -65535 -65535 -65535 -65535 
-65535 -65535 -65535 -65535 -65535 -65535 -65535 -65535 -65535 
-65535 -65535 -65535 -33.094933333 -65535 -65535 1 1 -65535 
-65535 -65535 -65535 -65535 -65535 -65535 -65535 -65535 -65535 
-65535 -65535 -65535 -65535 -65535 -65535 -65535 -65535 -65535 
-65535 -65535 -65535 -65535 -65535 -65535 -65535 -65535 -65535 
-65535 -65535 -65535 -65535 -65535 -65535 -65535 -65535 -65535 
-65535 -65535 -65535 -65535 -65535 -65535 -65535 -65535 -65535 
-65535 -65535 -54.305866667 -65535 -65535 -65535 -65535 -65535 -65535 
-65535 -65535 -65535 -65535 -65535 -65535 -11.9692 -65535 -65535 
-65535 -65535 -65535 -65535 -65535 -65535 -65535 -65535 -65535 
-65535 -65535 -65535 -65535 -65535 -65535 -65535 -65535 -65535 
-65535 -65535 -65535 -65535 -65535 -65535 -65535 -65535 -65535 
-65535 -65535 -65535 -65535 -65535 -65535 -65535 -65535 -65535 
-65535 -65535 -65535 -65535 -65535 -65535 -65535 -65535 -65535 
-65535 -65535 -65535 -65535 -65535 -65535 -65535 -65535 -65535 
-65535 -65535 -65535 1 -65535 1 -18.261466667 -65535 -65535 
-65535 -65535 -65535 -1.4113266667 -65535 1 -65535 -65535 -65535 
-65535 -65535 -65535 -65535 -65535 -65535 -65535 -65535 -65535 
-65535 -65535 1 -65535 -65535 -65535 -65535 -65535 -65535 
-65535 -65535 -65535 -65535 -65535 -65535 -65535 -65535 -65535 
-65535 -65535 -65535 -65535 -65535 -65535 -65535 -65535 -65535 
-65535 -65535 -65535 -65535 -65535 -65535 -65535 -65535 -62.898733333 
-65535 -65535 -65535 -65535 -65535 -65535 -65535 -65535 -65535 
-65535 -65535 -65535 -65535 -65535 1 -65535 1 -65535 
-65535 -65535 -65535 -65535 -65535 -65535 -65535 -65535 -65535 
-65535 -65535 -65535 -65535 -65535 -65535 -65535 -65535 -65535 
-65535 -65535 -65535 -65535 -65535 -65535 1 -65535 -65535 
-3.4289866667 -65535 -65535 -65535 -65535 -65535 -65535 -65535 -65535 
-65535 -65535 -65535 -65535 -65535 -65535 -65535 -65535 -65535 
-65535 1 -65535 -65535 -65535 -65535 -65535 -65535 -65535 
-65535 -65535 -65535 -65535 -65535 -65535 -65535 -65535 1 
-65535 -65535 -65535 -65535 -65535 -65535 -65535 -65535 -65535 
-65535 -65535 -65535 -65535 -65535 -65535 -65535 -65535 -65535 
-65535 -65535 -65535 -65535 -65535 -10.961 -65535 -65535 -65535 
-65535 -65535 -65535 -65535 -65535 -65535 -65535 -16.664 -65535 
-65535 -65535 -65535 -20.7556 -65535 -37.422533333 -65535 -65535 -65535 
-65535 -65535 -65535 -65535 -65535 -69.484 -65535 -65535 -65535 
-65535 -65.556466667 -64.810666667 -65535 -65535 -65535 -65535 -65535 -65535 
-65535 -65535 -65535 -65535 1 -65535 -65535 -65535 -65535 
-65535 -65535 -65535 -65535 1 -65535 -65535 -65535 -65535 
-65535 -65535 -65535 -65535 -65535 -65535 -65535 -65535 0.23970666667 
-65535 -65535 -21.208266667 -65535 -65535 -65535 -65535 -65535 -65535 
-65535 0.742376 -65535 1 -65535 -65535 -21.1986 -65535 -9.8023333333 
-65535 -65535 -65535 -20.384266667 -65535 -65535 1 -65535 -65535 
-65535 -65535 -65535 -65535 -65535 -65535 -65535 -65535 -65535 
-65535 -65535 -65535 -65535 -65535 -65535 0.39108066667 -65535 -65535 
-65535 -65535 -65535 -65535 -65535 -65535 -65535 -65535 -65535 
-65535 -65535 -65535 -65535 -65535 -65535 -65535 -65535 -65535 
-65535 -65535 -65535 -65535 -65535 -65535 -65535 -65535 -65535 
-65535 -65535 -65535 -65535 -65535 -65535 -65535 -65535 -65535 
-65535 -65535 -65535 -65535 -65535 -65535 -65535 -65535 -65535 
-65535 -65535 -65535 1 -65535 -65535 -65535 -65535 -65535 
-65535 -65535 -65535 -65535 -65535 -65535 -26.969333333 -65535 -65535 
-65535 -65535 -65535 -65535 -65535 -65535 -65535 -65535 -65535 
-65535 -65535 -65535 -65535 -65535 -65535 -65535 -65535 -65535 
-65535 -28.822333333 -38.836133333 -65535 -65535 -65535 -65535 -65535 -65535 
-65535 -65535 -65535 -65535 -65535 -65535 -65535 -65535 -65535 
-65535 -65535 -65535 -65535 -65535 -65535 -65535 -65535 -65535 
-65535 -65535 -65535 -65535 -65535 -65535 -65535 -65535 -65535 
-65535 -65535 -65535 -65535 -65535 -65535 -65535 -65535 -65535 
-65535 -65535 -65535 -65535 -65535 -65535 -65535 -65535 -65535 
-65535 -65535 -65535 -65535 -65535 -65535 -65535 -65535 -65535 
-65535 -65535 -65535 -65535 -65535 -65535 -65535 -65535 -65535 
-65535 -65535 -65535 -65535 -65535 -65535 -65535 -65535 -65535 
-65535 -65535 -65535 -65535 -65535 -65535 -65535 -65535 -65535 
-65535 -65535 -65535 -65535 -65535 -65535 -65535 -65535 -65535 
-65535 -65535 -65535 -65535 -65535 -65535 -65535 -65535 -65535 
-65535 -65535 -65535 -65535 -65535 -65535 -65535 -65535 -65535 
-65535 -65535 -65535 -65535 -65535 -65535 -65535 -65535 -65535 
-65535 -65535 -65535 -65535 -65535 -65535 -65535 -65535 -65535 
-65535 -65535 -65535 -65535 -65535 -65535 -65535 -65535 -65535 
-65535 -34.559666667 -65535 -65535 -65535 -65535 -65535 -65535 -65535 
-65535 -65535 -65535 -65535 -65535 -65535 -65535 -65535 -65535 
-65535 -65535 -65535 -65535 -65535 -65535 -65535 -65535 -65535 
-65535 -65535 -65535 -65535 -65535 -65535 -65535 -65535 -65535 
1 -65535 -65535 -65535 -65535 -65535 1 -65535 -65535 
-65535 -65535 -65535 -65535 -65535 -65535 -65535 -65535 -65535 
-11.324333333 -65535 -65535 -65535 -65535 -65535 1 1 -65535 
-65535 -65535 -25.822 -65535 -65535 -65535 -65535 -65535 -65535 
-65535 -65535 -65535 -65535 -65535 -65535 -65535 -65535 -65535 
-65535 -65535 -65535 -65535 -65535 -65535 -65535 -65535 -65535 
1 -65535 -65535 -65535 -65535 -65535 -65535 -65535 -65535 
-65535 -65535 -65535 -65535 -65535 -65535 -65535 -65535 -65535 
-65535 -65535 -65535 -65535 -65535 -65535 -65535 -65535 -65535 
-65535 -65535 -65535 -65535 -65535 -65535 1 -16.97 -65535 
-42.037066667 -65535 -65535 -65535 -12.344133333 -22.9242 -65535 -65535 -65535 
-65535 -65535 -65535 -65535 -65535 -65535 -65535 -65535 -59.4444 
-65535 -65535 -65535 -49.5932 -65535 -65535 -65535 -65535 -65535 
-65535 -65535 -65535 -65535 -65535 -65535 -65535 -65535 -65535 
-65535 1 -65535 -65535 -65535 -65535 -65535 -65535 -65535 
-65535 -65535 -65535 -65535 -65535 -65535 -65535 -65535 -65535 
-65535 -65535 -65535 -65535 -65535 -65535 -65535 1 1 
-65535 -65535 -65535 -65535 -65535 1 -65535 -65535 -65535 
1 -65535 -65535 -65535 -65535 1 -65535 -20.534866667 -47.157733333 
-65535 -65535 -65535 -65535 -65535 -65535 -65535 -65535 -65535 
-65535 -61.0538 -65535 -65535 -65535 -65535 -65535 -65535 -65535 
-65535 -65535 -65535 1 -65535 -65535 -65535 -65535 -65535 
-65535 -65535 -65535 -65535 -65535 -65535 -65535 -65535 -65535 
-65535 -65535 -65535 -65535 -65535 -65535 -65535 -65535 -65535 
-65535 -65535 -3.8095266667 -65535 -65535 0.74404 -65535 -65535 1 
-65535 -65535 -65535 -65535 -65535 -65535 -65535 -65535 -65535 
-65535 -65535 -65535 -65535 -65535 -65535 -65535 -65535 -65535 
-65535 -65535 -65535 -65535 -65535 -65535 -65535 -65535 -65535 
-65535 -65535 -65535 -65535 -65535 -65535 1 -65535 1 
-65535 -65535 -65535 -65535 -65535 -65535 -65535 -65535 -65535 
-65535 -65535 -65535 1 -65535 -65535 -65535 -65535 1 
-65535 -65535 -65535 -65535 -65535 -65535 -65535 -65535 -65535 
-65535 -65535 1 -19.506933333 -21.208 -65535 -65535 -65535 -65535 
-65535 -65535 -65535 -65535 -65535 1 -65535 -65535 -65535 
-65535 -65535 -65535 -65535 -65535 -65535 -65535 -65535 -65535 
-65535 -65535 -8.9692666667 -65535 -65535 -65535 -65535 -65535 -10.5746 
-20.4006 -29.5828 -16.7328 -65535 -65535 -65535 -65535 -65535 -65535 
-65535 -65535 -65535 -65535 -65535 -65535 -50.723 -65535 -65535 
-65535 -20.781933333 -65535 -65535 -65535 -65535 -65535 -65535 -65535 
-65535 -65535 -65535 -65535 -65535 -65535 -65535 0.74404 -65535 
-65535 -65535 -65535 -65535 -65535 -65535 -65535 -65535 -65535 
-65535 -65535 -56.431266667 -65535 -65535 -65535 -65535 -65535 -65535 
-65535 -65535 -65535 -65535 -65535 -65535 -65535 -65535 -65535 
-65535 -65535 -65535 -65535 -65535 -65535 -65535 -65535 -65535 
-65535 -65535 -65535 -65535 -65535 -65535 -51.128866667 -65535 -65535 
-65535 -65535 -65535 -65535 -65535 -65535 -65535 -65535 -65535 
-65535 -65535 -65535 -65535 -65535 -65535 -65535 -65535 -65535 
-65535 -65535 -65535 -47.525333333 -65535 -65535 -65535 -65535 -65535 
-65535 -65535 -65535 -65535 -65535 -65535 -65535 -65535 -65535 
-65535 -65535 -65.404 -65535 -65535 -65535 -65535 -65535 -65535 
-65535 -65535 -49.500933333 -65535 -65535 -65535 -65535 -65535 -65535 
-65535 -65535 -65535 -65535 -65535 -65535 -65535 -65535 -65535 
-65535 -65535 -65535 -65535 -65535 -65535 -65535 -65535 -65535 
-65535 -65535 -65535 -65535 -65535 -34.183066667 -65535 -65535 1 
-65535 1 -65535 -65535 -65535 -65535 -65535 -65535 -65535 
-63.2124 -65535 -58.336666667 -65535 -65535 -65535 -65535 -65535 -65535 
-65535 -65535 -65535 -65535 -65535 1 -65535 -65535 -65535 
-65535 -65535 -65535 -65535 -65535 -65535 -65535 -51.780933333 -65535 
-65535 -65535 -65535 -65535 -65535 -65535 -65535 -65535 -65535 
-65535 -65535 -65535 -65535 -65535 -65535 -65535 -65535 -65.257733333 
-23.3976 -39.912733333 -65535 -65535 -65535 -65535 -65535 -65535 -65535 
-65535 -65535 -65535 -65535 -65535 -65535 -65535 -65535 -65535 
-65535 -65535 -65535 -65535 -65535 -65535 -65535 -65535 -65535 
-65535 -65535 -68.683333333 -65535 -65535 -65535 -65535 -65535 -65535 
-65535 -65535 -65535 -65535 -65535 -65535 -65535 -65535 -65535 
-65535 -65535 -65535 -49.931133333 -65535 -65535 -65535 -65535 -65535 
-65535 -65535 -65535 -65535 -65535 -65535 -65535 -65535 -65535 
-65535 -65535 -65535 -65535 -65535 -65535 -65535 -65535 -65535 
-65535 -65535 -65535 -65535 -33.145533333 -65535 -65535 -65535 -65535 
-65535 -14.345866667 -65535 -23.482466667 -65535 -65535 -65535 -4.2764666667 -65535 
-65535 -65535 -65535 -65535 -65535 -65535 -65535 -65535 -65535 
-65535 -65535 -65535 -65535 -65535 -65535 -65535 -65535 -65535 
1 -65535 -65535 -65535 -65535 -65535 1 -65535 -65535 
-65535 -65535 -65535 -65535 -65535 -65535 -65535 -65535 -65535 
-65535 -65535 -65535 -65535 -65535 -65535 -65535 -65535 -65535 
-65535 -65535 -65535 -65535 -65535 -65535 -65535 -65535 -65535 
-65535 -65535 -65535 -65535 -65535 -65535 -65535 -65535 -65535 
-65535 -65535 -65535 -65535 -65535 -65535 -65535 -65535 -65535 
1 -65535 -65535 -65535 -65535 -65535 -65535 -65535 -0.10958 
-65535 -65535 -65535 -65535 -65535 1 -65535 -65535 -65535 
-65535 -65535 -65535 -65535 -65535 -65535 -65535 -65535 -65535 
1 -65535 -65535 -65535 -65535 -65535 -65535 -65535 -65535 
-65535 -65535 -65535 -65535 -65535 -65535 -65535 -65535 1 
-65535 -65535 -65535 -65535 -65535 -65535 -43.156866667 1 1 
-65535 -7.1297333333 -65535 -65535 -65535 -65535 -65535 -65535 -65535 
-65535 -65535 -65535 -65535 -65535 -65535 -65535 -65535 -65535 
-65535 1 -65535 -65535 0.74404 -65535 -65535 -65535 -65535 
1 -65535 -65535 -65535 -65535 -65535 -65535 -65535 -65535 
-65535 -65535 -65535 -65535 -65535 -65535 -65535 -65535 -65535 
-65535 -65535 -65535 -65535 -65535 -65535 -65535 -65535 -65535 
-65535 1 -65535 1 -65535 -37.487066667 -65535 -65535 -55.6522 
-65535 -65535 -65535 -65535 -65535 -65535 -65535 -65535 -65535 
-65535 -65535 -65535 -65535 -65535 -65535 -65535 -65535 -65535 
-65535 -56.501733333 -65535 -65535 -65535 -65535 -65535 -65535 -54.4528 
-65535 -65535 -65535 -65535 -65535 -65535 -65535 -56.1128 -66.702 
-65535 -65535 -65535 -65535 -65535 -65535 -65535 -46.086933333 -65535 
-65535 -65535 -65535 -65535 -65535 -65535 -65535 -65535 -65535 
-65535 -65535 -65535 -65535 -65535 -65535 -65535 -65535 -65535 
-65535 -65535 -65535 -65535 -65535 -65535 -65535 -65535 -65535 
-65535 -65535 -65535 -65535 -65535 -44.796933333 -60.241266667 -65535 -65535 
-65535 -65535 -65535 -65535 -65535 -65535 -65535 -65535 -65535 
-65535 -65535 -65535 -65535 -65535 -65535 -65535 -65535 -65535 
-65535 -65535 -65535 -65535 -65535 -65535 -65535 -65535 -65535 
-65535 -65535 -11.116733333 -20.734133333 1 -65535 -65535 -65535 -65535 
-65535 -65535 -65535 -65535 -65535 -65535 -65535 -65535 -65535 
-65535 -65535 -65535 -65535 -65535 -65535 -65535 -65535 -65535 
-65535 -65535 -65535 -65535 -65535 -65535 -65535 -65535 -63.5592 
-65535 -44.850133333 -65535 -65535 -65535 -65535 1 -65535 -65535 
-65535 -12.6584 -65535 -65535 -65535 -65535 -65535 -65535 -65535 
-65535 -65535 -65535 -65535 -65535 -65535 -65535 -65535 -65535 
-65535 -65535 -65535 -65535 -65535 -65535 -65535 1 1 
-65535 -65535 -65535 1 -65535 -65535 -65535 -65535 1 
-65535 -65535 1 -65535 -65535 -65535 -65535 -65535 -65535 
-65535 -65535 -65535 -65535 -65535 -65535 -65535 -65535 -65535 
-65535 -65535 -46.547066667 -65535 -65535 -65535 1 -65535 -65535 
-65535 -65535 -65535 1 -24.689866667 -13.109733333 -65535 -65535 -65535 
-65535 -65535 -29.743333333 -65535 1 -65535 -65535 -65535 -65535 
-65535 -65535 -65535 1 1 -65535 -65535 -65535 -65535 
-65535 -65535 -65535 -65535 -65535 -65535 -65535 1 -65535 
-65535 1 -65535 -65535 -65535 -65535 -65535 -65535 -65535 
-65535 -65535 -65535 -65535 -12.255133333 -65535 -65535 -65535 -65535 
-65535 -65535 -65535 -65535 -65535 -65535 -65535 -65535 -65535 
-65535 -65535 -65535 -65535 1 -65535 -22.9574 -65535 -65535 
-65535 -65535 -65535 -65535 -65535 -65535 -65535 -65535 -65535 
-65535 -65535 1 -65535 -65535 -65535 -65535 -65535 -65535 
-65535 -65535 -65535 -65535 -65535 -65535 -65535 -65535 -65535 
-65535 -65535 -65535 1 -65535 -65535 -65535 -65535 -65535 
-65535 -65535 -65535 -65535 -65535 -65535 -65535 -65535 -65535 
-65535 -65535 -65535 -65535 0.10494 0.0696 -65535 -65535 -65535 
-65535 -65535 -65535 -65535 -65535 -65535 -65535 -65535 -6.8638 
-65535 -65535 -65535 -65535 -65535 -65535 -45.181933333 -65535 -65535 
-65535 -5.1797133333 -65535 -65535 -65535 -65535 -65535 -65535 -65535 
-11.148066667 -65535 -65535 -65535 -65535 -65535 -65535 -65535 -65535 
-65535 -65535 -65535 -54.000333333 -65535 -65535 -65535 -65535 -65535 
-65535 -65535 -65535 -65535 -65535 -65535 -65535 -65535 -65535 
1 -65535 -65535 -65535 -65535 -65535 -65535 -65535 -65535 
-65535 -65535 -65535 -65535 -65535 -65535 -65535 -65535 -65535 
-65535 -65535 -65535 -65535 -65535 -65535 -65535 -65535 -41.09 
1 -65535 -65535 -65535 -65535 -43.4944 1 -65535 -65535 
-65535 -65535 -65535 -65535 -65535 -65535 -65535 -65535 -65535 
-65535 -65535 -65535 -65535 -65535 -65535 -65535 -65535 -65535 
-65535 -65535 -65535 -65535 -65535 -65535 -65535 -65535 -65535 
-65535 -65535 -65535 1 -65535 -65535 -65535 -65535 -65535 
-65535 -65535 -65535 -65535 -65535 -65535 -65535 1 1 
1 -65535 1 -65535 -65535 -65535 -65535 -65535 -65535 
-65535 -65535 -54.508933333 -65535 -65535 -59.9286 -65535 -43.153866667 -19.588733333 
-65535 -65535 -65535 -65535 -65535 -65535 -65535 -65535 -65535 
-65535 -65535 -65535 -65535 -65535 -65535 -65535 -65535 -65535 
-65535 -65535 -65535 -65535 -65535 1 -65535 1 1 
-65535 -65535 -65535 1 -65535 1 -65535 -65535 -65535 
1 -65535 -65535 -65535 -65535 -65535 -18.983666667 1 -65535 
-65535 -65535 -65535 -56.286733333 -46.692333333 -65535 -65535 -65535 -65535 
-65535 -65535 -65535 -65535 -43.9996 -65535 1 1 -65535 
-65535 -65535 -65535 1 -65535 -65535 -65535 -65535 -65535 
-65535 -65535 -65535 -65535 -65535 -65535 -65535 -65535 -65535 
-65535 -65535 -65535 -65535 -65535 -19.469733333 -65535 -65535 -65535 
-65535 -65535 -65535 -65535 -65535 -65535 -65535 -65535 -65535 
-65535 -65535 -65535 -65535 -65535 -65535 -65535 -59.980533333 -65535 
-65535 -65535 -65535 -65535 -65535 -65535 -65535 -65535 -65535 
-65535 -65535 -65535 -65535 -65535 -65535 -65535 -65535 -65535 
-65535 -65535 -65535 -65535 -65535 -65535 -65535 -65535 -65535 
-65535 -65535 -65535 -65535 -65535 -65535 1 -49.701066667 -34.712333333 
-65535 -65535 -65535 -65535 -65535 -65535 1 1 -65535 
-65535 1 -65535 -65535 -65535 -65535 0.97242526667 -65535 -65535 
-65535 -65535 1 -53.5248 -65535 -65535 -65535 -65535 -65535 
-65535 -65535 -65535 -65535 -65535 -65535 -65535 -65535 -65535 
-65535 -65535 -65535 -65535 -65535 -65535 -65535 -65535 -65535 
-65535 -65535 -65535 -65535 -65535 -65535 -65535 -65535 -65535 
-65535 -65535 -65535 -65535 -65535 -65535 -65535 -2.4042266667 -65535 
-65535 -65535 -65535 -11.581266667 -21.779866667 -65535 -65535 -65535 -65535 
-65535 -65535 1 -65535 1 -65535 -65535 -65535 -65535 
-65535 -65535 -65535 1 -65535 -65535 -65535 -65535 -65535 
-65535 -65535 -65535 -65535 -65535 -65535 -23.246133333 -65535 -65535 
-43.915733333 -65535 -65535 -65535 -65535 -65535 -65535 -65535 -65535 
-65535 -65535 -65535 -65535 -50.054666667 -65535 -65535 -7.3739333333 -65535 
-65535 -65535 -65535 -65535 -65535 -65535 -65535 -65535 -65535 
-65535 -65535 -65535 -65535 -65535 -65535 -65535 -65535 -65535 
-65535 -65535 -65535 -65535 -65535 -65535 -65535 -65535 -65535 
-65535 -65535 -65535 -65535 -2.2043266667 -65535 -65535 -65535 1 
-10.535933333 -65535 -65.342133333 -65535 -65535 -65535 -65535 -65535 -65535 
-65535 -65535 -65535 -65535 -65535 1 -65535 -65535 -65535 
-65535 -65535 -65535 -65535 -65535 -65535 -65535 -65535 -65535 
-65535 -65535 -65535 -65535 -65535 -65535 -65535 -65535 -65535 
-65535 -65535 -65535 -65535 -65535 -65535 -65535 -65535 -65535 
-65535 -65535 -65535 1 -65535 -65535 1 -65535 -65535 
1 -65535 -65535 -26.328733333 -13.2956 -65535 -65535 -65535 -65535 
-65535 -65535 -65535 -65535 -65535 -65535 -65535 -65535 -65535 
-65535 -65535 -65535 -65535 -65535 -65535 -65535 -65535 -65535 
-65535 -65535 -65535 -65535 -65535 -65535 -65535 -65535 -65535 
-29.3608 -65535 -65535 -65535 -65535 -65535 -65535 1 -65535 
-65535 -65535 -65535 -65535 -65535 -65535 -65535 -11.645866667 -65535 
-65535 -65535 -65535 1 -65535 -18.571866667 -65535 -65535 -40.139933333 
-65535 -65535 -65535 -65535 -65535 -65535 -65535 -65535 -65535 
1 -65535 -65535 -65535 -65535 -65535 -65535 -65535 -65535 
-65535 -65535 -65535 -65535 -65535 -65535 -65535 -65535 -65535 
-65535 -65535 -65535 -65535 -65535 -65535 -65535 -65535 -65535 
-65535 -65535 -65535 -65535 -65535 -65535 -65535 -65535 -65535 
-65535 -65535 -65535 -65535 1 -65535 -65535 -65535 -65535 
-65535 -65535 -65535 -65535 -65535 -65535 -65535 -65535 1 
-65535 -65535 -65535 -65535 -65535 -65535 -65535 -65535 -65535 
-65535 -65535 -65535 -65535 -65535 -65535 -65535 -65535 -65535 
-65535 -65535 -65535 -65535 
METADATA
INFORMATION 0

POINT_DATA 3625
SCALARS TEMPERATURE double
LOOKUP_TABLE default
1147.72 1139.62 1129.34 1140.04 1136.76 1135.39 1135.62 1138.77 1137.21 
1131.27 1129.86 1135.35 1133.39 1249.36 1246.04 1245.75 1246.83 1225.28 
1236.04 1202.49 1196.93 1238 1137.11 1176.89 1222.36 1242.69 1181.91 
1215.82 1170.06 1202.55 1233.34 1185.6 1196.35 1193.14 1138.29 1249.79 
1221.92 1247.81 1212.49 1194.48 1227.92 1249.87 1231.81 1137.29 1245.05 
1244.96 1207.41 1187.92 1231.64 1200.07 1219.24 1251.73 1179.7 1250.99 
1250.73 1222.2 1251.78 1251.57 1250.67 1245.56 1251.42 1172.59 1251.74 
1251.53 1215.59 1251.67 1248.26 1177.08 1181.26 1251.81 1251.82 1252.24 
1251.68 1251.79 1152.16 1138.08 1132.61 1134.25 1141.74 1134.66 1140 
1138.72 1133.41 1131.81 1195.45 1229.72 1239.78 1181.75 1136.38 1199.44 
1226.74 1250.7 1217.48 1228.34 1213.6 1236.98 1131.95 1184.45 1209.66 
1249.25 1241.39 1207.87 1202.07 1133.48 1132.31 1135.4 1131.53 1235.88 
1183.56 1137.88 1245.82 1135.77 1182.5 1250.87 1188.53 1246.65 1229.6 
1187.82 1186.43 1194.22 1250.8 1242.71 1230.82 1194.53 1246.12 1203.1 
1181.57 1137.69 1248.18 1141.55 1241.53 1199.49 1218.99 1177.63 1212.67 
1193.52 1223.08 1233.97 1240.7 1251.88 1251.71 1251.81 1251.43 1251.66 
1251.47 1251.37 1251.63 1251.76 1251.52 1251.63 1139.91 1139.74 1138.98 
1138.12 1135.31 1136.22 1136.16 1136.21 1134.78 1130.33 1136.63 1136.01 
1132.65 1135.76 1136.05 1143.75 1152.15 1154.87 1154.37 1150.04 1151.26 
1152.59 1152.85 1151.65 1151.48 1154.53 1155.24 1136.28 1150.98 1150.29 
1152.07 1154.41 1156.34 1158.27 1149.64 1157.51 1155.64 1152.49 1154.1 
1147.38 1140.96 1250.76 1250.83 1251.17 1251.42 1251.63 1251.89 1251.93 
1251.69 1251.64 1251.89 1251.81 1251.72 1251.79 1251.65 1251.68 1251.57 
1214.08 1251.02 1250.71 1250.54 1250.34 1248.8 1243.77 1241.28 1248.85 
1250.27 1250.76 1250.63 1250.73 1251.25 1251.26 1251.4 1251.61 1251.78 
1251.92 1251.97 1251.93 1251.9 1251.83 1251.71 1251.54 1251.49 1251.39 
1251.31 1251.32 1251.38 1251.03 1250.76 1250.64 1250.61 1250.24 1245.36 
1221.47 1222.99 1201.21 1228.88 1246.8 1250.91 1252.29 1252.9 1253.45 
1253.9 1254.29 1254.57 1254.7 1254.81 1254.82 1254.8 1254.79 1254.79 
1254.8 1254.82 1254.82 1254.79 1254.71 1254.58 1254.31 1253.95 1253.46 
1252.93 1252.31 1251.27 1247.38 1231.43 1249.3 1250.51 1250.81 1250.55 
1250.79 1251.31 1251.25 1251.27 1251.35 1251.48 1251.63 1251.76 1251.89 
1251.77 1251.59 1251.53 1251.32 1251.21 1251.18 1251.41 1251.34 1251.16 
1250.92 1250.69 1250.55 1250 1241.74 1223.19 1147.6 1150.04 1151.16 
1151.95 1156.03 1153.97 1156.02 1146.37 1151.52 1154.04 1151.99 1152.99 
1145.29 1152.43 1155.01 1154.68 1152.66 1153.28 1153.54 1154.31 1152.46 
1155.08 1154.27 1153.16 1199.77 1189.5 1223.84 1191.81 1221.82 1251.03 
1251.19 1251.46 1251.55 1251.61 1250.16 1250.81 1250.78 1251.72 1251.74 
1251.8 1251.84 1238.67 1252.07 1251.89 1251.75 1251.6 1251.47 1251.37 
1251.18 1250.98 1250.8 1250.68 1250.35 1223.91 1228.05 1251.83 1252.03 
1220.04 1251.69 1251.81 1251.74 1251.61 1251.66 1251.66 1251.53 1251.11 
1250.89 1250.71 1250.64 1249.73 1251.09 1251.25 1251.31 1251.39 1250.84 
1250.37 1236.2 1227.85 1224.32 1251.61 1251.71 1251.76 1251.72 1251.7 
1251.6 1251.42 1251.39 1251.08 1250.95 1250.84 1250.74 1250.15 1248.11 
1251.77 1251.33 1251.24 1251.14 1251.03 1250.93 1250.76 1250.74 1250.19 
1247.23 1248.93 1250.43 1250.63 1250.66 1251.08 1251.26 1251.16 1251.29 
1251.42 1251.54 1251.63 1251.64 1251.69 1251.76 1251.84 1252.5 1251.64 
1251.53 1249.15 1250.49 1250.62 1250.71 1250.93 1251.29 1251.29 1251.44 
1251.58 1213.36 1231.9 1197.54 1191.28 1192.97 1225.44 1215.71 1208.05 
1251.84 1251.66 1251.49 1251.17 1250.94 1250.79 1250.64 1250.63 1250.62 
1249.87 1251.8 1251.77 1250.93 1251.56 1251.36 1251.51 1251.45 1251.49 
1251.62 1251.7 1249.96 1250.65 1251.65 1251.51 1251.5 1251.59 1251.56 
1251.32 1250.97 1250.78 1250.73 1250.27 1236.31 1198.58 1203.66 1202.63 
1197.3 1165.15 1194.98 1149.19 1161.48 1245.56 1185.98 1164.8 1189.87 
1211.87 1164.97 1164.77 1215.45 1194.5 1173.45 1178.29 1179.35 1252.03 
1251.83 1251.8 1251.77 1251.74 1220.34 1227.08 1211.37 1198.42 1163.3 
1211.61 1245.21 1226.23 1231.8 1190.74 1189.75 1136.62 1132.09 1135.4 
1136.27 1136.84 1136.97 1136 1135.2 1133.38 1136.27 1139.57 1141.79 
1141.7 1137.97 1193.36 1202.63 1164.69 1208.92 1187.83 1195.95 1187.19 
1159.93 1190.61 1158.91 1166.61 1165.39 1160.5 1202.12 1164.54 1165.79 
1179.56 1190.33 1203.76 1184.27 1165.7 1165.61 1161.9 1160.74 1212.21 
1198.38 1206.92 1194.74 1153.12 1157.11 1152.3 1154.93 1154.57 1158.31 
1159.06 1153.01 1154.42 1153.3 1155.43 1155.02 1153.36 1148.11 1152.75 
1155.97 1157.16 1154.76 1153.93 1148.9 1155.56 1145.02 1152.22 1141.41 
1144.85 1144.73 1142.59 1139.75 1141.99 1142.87 1138.76 1144.04 1143.8 
1147.38 1142.71 1146.37 1142.39 1143.33 1142.94 1144.83 1143.51 1143.77 
1144.51 1143.13 1157.36 1157.75 1154.32 1152.94 1158.9 1163.05 1153.76 
1154.88 1155.03 1151.67 1154.24 1158.72 1162.15 1157.81 1156.37 1156.8 
1156.32 1151.14 1152.37 1149.09 1149.54 1152.27 1150.21 1155.91 1151.12 
1148.93 1149.27 1150.62 1155.29 1160.9 1158.05 1159.69 1160.02 1157.59 
1155.04 1158.94 1158.97 1158.72 1156.78 1155.97 1154.4 1157.78 1152.56 
1154.16 1154.12 1164.41 1161.41 1160.38 1160.96 1157.93 1157.48 1160.09 
1157.19 1157.06 1158.95 1155.37 1238 1249.03 1250.42 1250.72 1250.71 
1250.93 1251.26 1251.46 1251.54 1251.63 1251.73 1251.58 1251.44 1251.65 
1251.82 1251.91 1251.93 1251.84 1251.71 1251.68 1251.56 1251.39 1251.32 
1250.99 1250.61 1250.7 1250.68 1249.93 1248.09 1235.3 1237.43 1246.71 
1230.94 1226.7 1226.11 1217.12 1222.04 1227.64 1243.16 1209.67 1249.83 
1223.37 1251.81 1226.36 1252.65 1226.89 1253.22 1223.55 1253.73 1213.9 
1254.17 1222.48 1254.45 1214.21 1254.66 1254.75 1254.8 1241.13 1254.79 
1250.01 1254.78 1251.86 1254.77 1252.24 1254.76 1252.35 1254.77 1252.39 
1254.79 1252.34 1254.8 1252.36 1254.75 1252.34 1254.64 1252.3 1254.44 
1252.35 1254.11 1252.5 1253.7 1252.6 1253.2 1252.68 1252.64 1252.78 
1251.89 1252.69 1249.62 1252.54 1241.7 1252.52 1216.83 1252.51 1252.4 
1252.22 1229.43 1252.35 1219.2 1252.44 1219.49 1252.34 1212.08 1252.28 
1211.9 1252.32 1223.67 1252.07 1216.81 1249.92 1224.91 1234.54 1227.88 
1220.82 1193.97 1224.13 1207.89 1246.61 1246.2 1244.88 1246.65 1246.48 
1251.06 1245.63 1252.33 1246.42 1252.98 1246.49 1253.5 1246.13 1253.96 
1245.25 1254.31 1254.56 1254.71 1254.76 1254.77 1254.77 1252.12 1254.76 
1252.9 1254.74 1253.03 1254.74 1253.1 1254.76 1253.2 1254.77 1253.14 
1254.75 1253.37 1254.69 1253.36 1254.55 1253.27 1254.31 1253.39 1253.93 
1253.49 1253.49 1253.51 1252.96 1253.57 1252.34 1253.66 1251.23 1253.63 
1245.71 1253.57 1253.56 1253.52 1253.34 1253.21 1243.41 1253.22 1245.09 
1253.1 1239.85 1253.02 1244.17 1253.07 1244.72 1252.91 1244.74 1252.38 
1244.49 1248.39 1246.49 1250.34 1250.76 1250.92 1251.15 1251.35 1251.98 
1251.6 1252.77 1252.02 1253.29 1251.72 1253.78 1251.21 1254.17 1254.44 
1254.62 1254.7 1254.73 1254.73 1254.72 1252.94 1254.71 1253.3 1254.71 
1253.39 1254.71 1253.43 1254.73 1253.57 1254.72 1253.7 1254.69 1253.82 
1254.6 1253.88 1254.42 1253.92 1254.14 1253.96 1253.75 1253.95 1253.28 
1253.9 1252.72 1253.94 1251.92 1254.02 1249.94 1253.94 1253.82 1253.82 
1253.79 1253.77 1253.68 1249.83 1253.47 1250.05 1253.46 1250.45 1253.37 
1251.09 1253.27 1250.98 1253.01 1251.24 1252.03 1251.56 1252.08 1252.09 
1252.5 1252.77 1252.97 1253.13 1253.18 1253.61 1254 1254.31 1254.52 
1254.62 1254.66 1254.67 1254.67 1254.66 1254.65 1253.47 1254.65 1253.58 
1254.66 1253.66 1254.67 1253.76 1254.65 1253.86 1254.59 1253.93 1254.48 
1253.97 1254.28 1254.02 1253.98 1254.04 1253.59 1254.04 1253.11 1254.04 
1252.5 1254.08 1254.07 1254.03 1254 1253.97 1253.9 1253.85 1253.76 
1253.66 1252.24 1253.57 1252.34 1253.46 1252.53 1253.16 1252.71 1252.91 
1252.62 1252.89 1252.96 1253.2 1253.36 1253.46 1253.44 1253.84 1254.18 
1254.38 1254.51 1254.59 1254.61 1254.61 1254.61 1254.6 1254.59 1253.61 
1254.6 1253.74 1254.6 1253.84 1254.6 1253.91 1254.56 1253.99 1254.49 
1254.04 1254.33 1254.08 1254.14 1254.1 1253.84 1254.12 1253.45 1254.14 
1252.98 1254.15 1254.16 1254.13 1254.1 1254.07 1254.02 1253.97 1253.93 
1253.84 1253.74 1252.85 1253.61 1253.08 1253.42 1253.19 1253.31 1253.47 
1253.61 1253.69 1253.7 1254.01 1254.22 1254.4 1254.49 1254.52 1254.53 
1254.52 1254.52 1254.53 1254.53 1254.53 1253.87 1254.53 1253.98 1254.51 
1254.05 1254.45 1254.12 1254.38 1254.16 1254.22 1254.18 1253.98 1254.2 
1253.72 1254.21 1253.38 1254.22 1254.23 1254.22 1254.2 1254.17 1254.14 
1254.09 1254.04 1253.97 1253.88 1253.74 1253.59 1253.53 1253.81 1253.88 
1254.07 1254.28 1254.37 1254.43 1254.45 1254.44 1254.44 1254.45 1254.45 
1254.45 1254.45 1254.02 1254.44 1254.12 1254.41 1254.18 1254.34 1254.24 
1254.25 1254.27 1254.1 1254.28 1253.8 1254.27 1254.29 1254.3 1254.3 
1254.29 1254.28 1254.25 1254.22 1254.17 1254.11 1254 1253.82 1254.16 
1254.24 1254.31 1254.35 1254.37 1254.36 1254.37 1254.37 1254.37 1254.37 
1254.36 1254.33 1254.3 1254.23 1254.13 1253.99 1251.6 1237.22 1253.23 
1226.76 1229.02 1207.01 1224.37 1205.47 1223.95 1223.45 1244.92 1227.13 
1250.61 1227.52 1251.96 1224.95 1252.64 1224.66 1253.21 1216.21 1253.7 
1199.83 1254.13 1254.44 1254.65 1225.48 1254.75 1254.8 1250.36 1254.78 
1251.74 1254.77 1252.02 1254.76 1252.13 1254.77 1252.26 1254.78 1252.18 
1254.79 1252.25 1254.8 1252.22 1254.74 1252.34 1254.66 1252.45 1254.44 
1252.55 1254.15 1252.66 1253.73 1252.78 1253.21 1252.66 1252.65 1252.73 
1251.84 1252.76 1249.69 1252.72 1241.41 1252.57 1215.93 1252.45 1252.36 
1224.94 1252.21 1221.04 1252.28 1220.82 1252.36 1225.45 1252.3 1224.1 
1252.18 1222.03 1251.93 1226.53 1251.6 1228.78 1248.29 1230.38 1235.78 
1228.72 1227.52 1244.21 1206.41 1246.63 1247.92 1245.85 1242.6 1244.43 
1245.41 1246.97 1251.4 1246.96 1252.33 1247.19 1252.96 1253.47 1253.94 
1254.29 1254.54 1254.68 1254.75 1254.76 1252.07 1254.75 1252.91 1254.74 
1252.89 1254.74 1253.03 1254.74 1253.18 1254.76 1253.01 1254.77 1253.13 
1254.74 1253.19 1254.68 1253.39 1254.52 1253.51 1254.32 1253.62 1253.97 
1253.65 1253.5 1253.51 1252.95 1253.45 1252.34 1253.57 1251 1253.52 
1246.32 1253.35 1253.23 1253.19 1253.1 1253.17 1244.99 1253.12 1246.88 
1253.14 1244.74 1253.13 1244.88 1253.05 1245.6 1252.77 1246.2 1249.55 
1247.47 1247.74 1246.53 1250.62 1249.82 1250.81 1250.95 1251.36 1251.56 
1252.02 1251.91 1252.36 1252.75 1253.29 1253.74 1254.13 1254.41 1254.61 
1254.69 1254.72 1254.73 1253.04 1254.72 1253.3 1254.7 1253.38 1254.71 
1253.46 1254.72 1253.57 1254.73 1253.61 1254.73 1253.84 1254.67 1253.93 
1254.59 1254.02 1254.42 1254.01 1254.15 1253.99 1253.77 1254.01 1253.28 
1254.02 1252.72 1254.02 1251.93 1254.02 1250.27 1253.91 1253.81 1253.79 
1253.78 1253.8 1253.78 1251.05 1253.62 1250.4 1253.49 1250.68 1253.36 
1250.72 1253.22 1251.24 1252.57 1251.14 1251.62 1251.71 1252.13 1252.22 
1252.51 1252.72 1252.98 1253.16 1253.12 1253.58 1253.97 1254.27 1254.47 
1254.61 1254.66 1254.67 1254.67 1254.65 1253.48 1254.65 1253.58 1254.66 
1253.68 1254.67 1253.8 1254.67 1253.88 1254.65 1253.93 1254.6 1254.02 
1254.46 1254.06 1254.31 1254.05 1254 1254.06 1253.57 1254.07 1253.08 
1254.07 1252.47 1254.07 1254.06 1253.96 1253.93 1253.91 1253.92 1253.89 
1253.78 1253.65 1252.21 1253.55 1252.41 1253.44 1252.62 1253.1 1252.75 
1252.63 1252.09 1252.9 1252.96 1253.2 1253.34 1253.46 1253.45 1253.83 
1254.15 1254.34 1254.52 1254.57 1254.6 1254.6 1254.6 1254.58 1253.6 
1254.59 1253.72 1254.59 1253.83 1254.61 1253.92 1254.6 1253.98 1254.57 
1254.02 1254.52 1254.07 1254.38 1254.1 1254.17 1254.11 1253.8 1254.13 
1253.42 1254.13 1252.95 1254.13 1254.12 1254.11 1254.08 1254.05 1254.04 
1254.01 1253.9 1253.79 1253.68 1253.01 1253.54 1253.18 1253.32 1253.35 
1253.35 1253.47 1253.58 1253.67 1253.73 1254.02 1254.23 1254.39 1254.47 
1254.52 1254.52 1254.52 1254.52 1254.52 1254.52 1253.83 1254.53 1253.95 
1254.54 1254.04 1254.51 1254.08 1254.47 1254.12 1254.38 1254.16 1254.25 
1254.18 1253.98 1254.19 1253.55 1254.21 1254.2 1254.2 1254.2 1254.19 
1254.16 1254.13 1254.08 1254.03 1253.92 1253.81 1253.64 1253.47 1253.6 
1253.78 1253.83 1254.09 1254.26 1254.36 1254.41 1254.44 1254.44 1254.44 
1254.44 1254.44 1254.44 1254 1254.46 1254.1 1254.43 1254.18 1254.41 
1254.2 1254.35 1254.24 1254.28 1254.26 1254.1 1254.27 1253.83 1254.28 
1254.28 1254.28 1254.29 1254.28 1254.26 1254.24 1254.2 1254.14 1254.06 
1253.93 1253.8 1253.98 1254.13 1254.24 1254.31 1254.35 1254.35 1254.36 
1254.36 1254.36 1254.36 1254.37 1254.35 1254.33 1254.31 1254.25 1254.18 
1253.95 1254 1252.66 1206.69 1248.59 1250.7 1250.81 1250.9 1250.96 
1251.17 1251.42 1251.54 1251.69 1251.77 1251.83 1251.98 1251.76 1251.7 
1251.75 1251.82 1251.75 1251.64 1251.52 1251.5 1251.48 1251.28 1251.03 
1250.88 1250.96 1250.83 1250.19 1245 1241.88 1252.01 1221.41 1246.07 
1249.77 1250.59 1250.78 1251 1251.19 1251.19 1251.31 1251.44 1251.55 
1251.67 1251.69 1251.6 1251.7 1251.2 1251.77 1251.28 1251.81 1251.46 
1251.73 1251.57 1251.63 1251.68 1251.58 1251.75 1251.43 1251.67 1251.33 
1251.59 1251.23 1251.65 1251.09 1251.72 1250.87 1251.75 1250.74 1250.72 
1250.46 1248.74 1240.57 1220.01 1224.95 1244.77 1233.12 1244.87 1250.53 
1250.68 1250.77 1250.88 1251.1 1251.26 1251.36 1251.46 1251.57 1251.74 
1251.64 1251.63 1251.65 1251.72 1251.81 1251.65 1251.61 1251.64 1251.52 
1251.38 1251.44 1251.24 1251.02 1250.82 1250.7 1250.61 1250.35 1247.77 
1231.75 1238.95 1249.28 1243.39 1250.31 1238.12 1250.81 1250.77 1251.01 
1251.29 1251.56 1251.65 1251.63 1251.71 1251.62 1251.6 1251.71 1251.79 
1251.69 1251.57 1251.52 1251.55 1251.62 1251.51 1251.36 1251.07 1250.96 
1250.8 1250.57 1249.75 1236.67 1251.59 1214.29 1242.43 1250.67 1243.65 
1230.06 1250.94 1251.01 1251.01 1251.07 1228.17 1251.28 1251.4 1251.48 
1251.55 1251.66 1251.76 1251.8 1251.84 1251.83 1251.75 1251.69 1251.6 
1251.53 1251.51 1251.42 1251.32 1250.94 1250.9 1250.77 1251.75 1250.47 
1247.38 1235.24 1215.98 1240.46 1250.86 1245.91 1250.69 1250.02 1249.38 
1251.79 1251.74 1251.7 1251.54 1251.36 1251.14 1251.01 1250.89 1250.65 
1250.61 1250.47 1248.55 1251.81 1200.43 1205.87 1181.44 1185.35 1250.27 
1230.76 1250.67 1250.83 1251.18 1251.36 1251.53 1251.53 1251.68 1251.74 
1251.88 1251.97 1251.92 1251.75 1251.61 1251.03 1251.48 1251.56 1251.57 
1228.13 1233.12 1194.92 1249.24 1226.26 1239.36 1250.75 1250.87 1250.85 
1251.09 1251.32 1251.44 1251.47 1251.56 1251.72 1251.76 1213.74 1145.35 
1145.65 1143.71 1144.51 1150.39 1142.74 1154.06 1143.69 1153.75 1142.33 
1152.68 1143.79 1150.74 1140.8 1156 1143.08 1156.54 1142.34 1155.99 
1144.07 1157.17 1143.45 1156.26 1153.89 1144.63 1144.01 1145.25 1159.08 
1144.77 1163.45 1143.24 1160.52 1143.6 1155.65 1155.56 1156.57 1142.31 
1154.66 1145.07 1155.56 1146.46 1154.11 1143.14 1150.15 1150.94 1156.53 
1157.2 1151.23 1153.94 1150.6 1155.92 1157.95 1151.59 1157.29 1159.09 
1152.11 1162.03 1149.12 1147.33 1152.43 1151.44 1167.53 1155.13 1155.93 
1149.05 1160.32 1161.5 1151.74 1159.95 1152.06 1157.47 1158.91 1158.06 
1157.59 1155.59 1159.32 1157.05 1156.47 1154.32 1156.08 1154.3 1156.42 
1155.9 1155.92 1155.58 1160.07 1159.17 1157.75 1157.88 1159.94 1155.87 
1158.97 1154.6 1158.42 1154.67 1156.37 1158.27 1157.75 1152.71 1157.59 
1153.83 1139.53 1139.99 1212.7 1199.89 1198.15 1196.19 1210.29 1236.83 
1198.09 1239.25 1237.91 1208.55 1226.19 1246.64 1246.81 1220.95 1216.14 
1251.22 1251.89 1249.18 1228.69 1242.65 1223.52 1226 1226.15 1205.14 
1248.35 1252.13 1252.11 1252.18 1252.08 1217.55 1246.76 1214.25 1252.17 
1218.02 1225.59 1231.21 1213.5 1252.15 1252.35 1251.04 1245.66 1252.39 
1252.8 1251.84 1226.06 1241.29 1251.38 1225.44 1252.98 1253.06 1219.22 
1229.89 1234.1 1206.19 1217.67 1252.2 1252.15 1249.42 1252.23 1252.23 
1252.49 1244.59 1250.46 1252.42 1224.07 1253.16 1253.35 1253.31 1225.73 
1224.21 1234.18 1220 1252.33 1252.15 1252.16 1252.46 1241.21 1221.32 
1252.45 1252.44 1252.37 1211.29 1241.17 1250.12 1252.42 1224.19 1253.25 
1253.48 1253.51 1253.49 1210.01 1210.13 1223.3 1230.02 1204.21 1206.07 
1201.79 1252.35 1252.16 1252.5 1252.22 1246.7 1252.17 1252.36 1252.48 
1252.54 1218.22 1239.44 1250.12 1252.4 1214.86 1253.56 1253.37 1253.64 
1253.19 1253.59 1221.47 1208.3 1218.41 1211.63 1224.25 1196.69 1252.3 
1252.57 1252.15 1245.79 1199.91 1252.52 1252.52 1222.78 1242.22 1249.87 
1251.99 1216.14 1253.64 1253.73 1253.4 1253.73 1253.75 1253.45 1253.79 
1252.98 1211.03 1230.32 1219.07 1212.34 1225.8 1202.12 1220.56 1252.49 
1252.33 1252.45 1252.53 1252.57 1252.27 1249.73 1229.52 1252.53 1252.91 
1252.62 1226.95 1248.94 1241.94 1252.08 1232.39 1253.69 1253.82 1253.85 
1253.88 1253.38 1253.78 1252.77 1212.36 1223.9 1226.73 1221.88 1212.06 
1215.01 1252.42 1252.65 1252.38 1252.59 1252.42 1237.49 1247.81 1222.11 
1253.88 1253.95 1253.27 1253.39 1254.11 1254.2 1215.74 1203.89 1208.67 
1216.73 1225.64 1218.64 1205.18 1219.67 1252.38 1252.63 1252.55 1252.41 
1252.36 1252.37 1252.52 1252.25 1250.16 1252.62 1252.95 1222.92 1251.11 
1253.94 1253.82 1254.03 1254.07 1253.58 1254.14 1253.86 1254.3 1254.24 
1253.06 1205.58 1252.62 1252.56 1252.41 1252.32 1252.55 1252.38 1252.07 
1251.07 1243.15 1252.84 1249.83 1243.78 1254.06 1253.96 1253.83 1253.63 
1254.22 1253.56 1253.98 1254.3 1252.69 1253.27 1239.67 1240.13 1241.98 
1242.97 1252.66 1252.58 1252.53 1252.72 1252.54 1252.42 1252.46 1252.83 
1252.33 1254.09 1253.98 1253.87 1253.59 1254.28 1253.77 1254.16 1254.52 
1254.51 1254.39 1254.44 1252.96 1253.49 1249.31 1250.01 1250.19 1249.3 
1249.33 1250.66 1250.79 1250.88 1252.62 1252.67 1252.66 1252.47 1252.47 
1252.84 1252.59 1252.76 1252.76 1252.66 1252.53 1251.69 1254.13 1254.22 
1254.06 1253.98 1253.76 1254.31 1253.96 1254.32 1254.63 1254.6 1254.6 
1254.55 1254.41 1254.55 1252.06 1252.52 1252.9 1252.07 1251.82 1251.65 
1251.4 1252.89 1252.96 1253.03 1252.84 1252.61 1252.6 1252.75 1253.29 
1253.19 1253.43 1253.08 1252.79 1253.41 1252.65 1253.05 1252.69 1252.85 
1254.22 1254.07 1254.03 1253.63 1254.33 1254.72 1254.68 1254.64 1254.49 
1254.4 1252.93 1253.36 1252.75 1252.75 1253.04 1253.31 1253.02 1252.69 
1252.39 1253.7 1253.54 1253.74 1252.75 1252.63 1252.6 1252.85 1252.65 
1254.23 1254.1 1254.05 1253.67 1254.76 1254.71 1254.64 1254.56 1253.45 
1253.28 1253.64 1253.6 1253.03 1252.76 1252.69 1252.73 1252.86 1252.72 
1252.76 1252.85 1252.89 1253.66 1253.84 1253.91 1253.89 1253.96 1252.67 
1252.77 1252.61 1252.84 1252.47 1253.55 1254.15 1254.21 1254.11 1254.04 
1253.88 1254.76 1254.69 1254.62 1253.99 1254.34 1253.8 1253.78 1253.4 
1252.47 1252.52 1252.71 1252.58 1252.6 1253.66 1253.94 1253.89 1253.97 
1254 1253.02 1252.55 1252.68 1252.57 1253.83 1254.15 1254.21 1254.09 
1254.04 1253.77 1254.32 1254.51 1254.67 1254.73 1254.68 1254.54 1254.41 
1254.72 1254.19 1254.41 1253.99 1253.89 1252.43 1252.95 1252.55 1252.66 
1252.84 1253.73 1253.99 1254.04 1254.11 1254.19 1252.54 1252.61 1252.51 
1254.1 1254.02 1253.67 1254.32 1254.59 1254.65 1254.75 1254.73 1254.72 
1254.67 1254.6 1254.56 1254.4 1254.67 1254.46 1254.16 1252.73 1252.87 
1252.82 1252.77 1252.69 1252.65 1252.62 1252.89 1253.81 1253.95 1254.06 
1254.13 1254.23 1254.27 1254.21 1254.3 1252.68 1252.57 1252.59 1252.42 
1254.12 1254.2 1254.06 1254.32 1254.57 1254.6 1254.71 1254.74 1254.7 
1254.68 1254.63 1254.56 1254.47 1254.61 1254.33 1254.46 1252.74 1252.67 
1252.82 1252.67 1252.61 1252.6 1252.57 1253.67 1254.03 1254.14 1254.21 
1254.35 1254.38 1254.29 1254.37 1252.5 1252.42 1252.36 1252.9 1252.31 
1254.08 1254.01 1253.98 1253.49 1254.5 1254.53 1254.71 1254.67 1254.74 
1254.73 1254.69 1254.63 1254.56 1254.48 1254.38 1254.53 1254.41 1252.57 
1252.55 1252.71 1252.74 1252.45 1252.44 1252.86 1252.3 1252.79 1253.82 
1254.06 1254.16 1254.22 1254.45 1254.45 1254.44 1252.58 1252.35 1252.39 
1252.16 1252.27 1254.05 1253.96 1254.28 1254.7 1254.66 1254.6 1254.75 
1254.53 1254.73 1254.7 1254.63 1254.56 1254.45 1254.33 1252.5 1252.47 
1252.52 1252.25 1252.58 1253.71 1254.01 1254.09 1254.16 1254.23 1254.33 
1252.13 1252.34 1254.12 1253.36 1254.21 1254.7 1254.66 1254.6 1254.53 
1254.76 1254.72 1254.69 1254.61 1254.51 1254.4 1254.28 1252.65 1252.67 
1252.6 1252.37 1252.29 1252.4 1253.08 1253.95 1254.05 1254.15 1254.24 
1254.45 1254.38 1252.11 1252.02 1252.29 1252.54 1253.96 1254.1 1253.57 
1253.19 1254.16 1254.73 1254.66 1254.59 1254.52 1254.76 1254.71 1254.63 
1254.54 1254.42 1254.3 1254.18 1252.51 1252.42 1252.19 1253.76 1254.04 
1254.13 1254.21 1254.3 1254.46 1254.37 1252.2 1252.6 1252.39 1252.32 
1254.02 1253.55 1253.11 1254.06 1254.73 1254.67 1254.61 1254.54 1254.71 
1254.5 1254.38 1254.23 1254.12 1253.99 1252.37 1252.33 1252.26 1252.16 
1253.49 1253.49 1252.31 1252.47 1253.9 1254.01 1254.1 1254.2 1254.29 
1254.45 1254.37 1252.17 1253.17 1252.29 1250.85 1252.35 1252.42 1252.13 
1253.65 1253.48 1253.93 1254.66 1254.71 1254.61 1254.6 1254.41 1254.27 
1254.15 1254 1253.9 1252.33 1253.84 1253.78 1252.34 1252.3 1253.96 
1254.07 1254.17 1254.46 1251.36 1253.12 1253.41 1251.99 1250.11 1249.82 
1244.39 1252.33 1252.29 1253.77 1253.67 1253.56 1253.74 1253.7 1254.64 
1254.61 1254.36 1254.12 1253.95 1253.69 1252.14 1253.9 1253.33 1253.68 
1253.85 1252.45 1252.65 1254.02 1254.12 1254.26 1254.43 1254.34 1248.11 
1252.81 1253.25 1253.37 1248.29 1247.45 1241.38 1241.67 1237.44 1251.42 
1252.13 1253.48 1253.39 1253.3 1254.51 1254.55 1253.93 1253.7 1253.55 
1253.25 1253.96 1253.26 1253.53 1253.74 1253.9 1252.34 1251.96 1254.21 
1254.38 1254.28 1250.86 1224.77 1252.51 1252.6 1226.07 1234.5 1225.27 
1203.73 1250.29 1253.13 1252.52 1254.29 1254.46 1254.43 1253.48 1253.26 
1253.08 1252.94 1252.6 1253.11 1253.65 1253.94 1251.44 1254.2 1239.61 
1249.65 1252.35 1249.65 1201.35 1211.43 1220.83 1246.19 1244.35 1238.87 
1251.86 1251.45 1254.28 1253.99 1252.95 1252.71 1252.49 1251.62 1254.04 
1253.08 1253.54 1253.93 1254.16 1254.05 1221.87 1203.04 1235.35 1206 
1215.27 1224.02 1247.2 1248.5 1248.15 1254.02 1253.79 1253.51 1252.34 
1251.82 1251.43 1248.4 1252.64 1253.18 1253.38 1253.55 1253.7 1241.09 
1236.8 1242.4 1253.96 1228.4 1224.91 1223.17 1215.21 1212.53 1220.13 
1235.48 1234.12 1235.18 1252.97 1252.97 1246.05 1250.59 1252.75 1253.14 
1253.4 1253.61 1253.29 1213.4 1236.29 1228.84 1218.96 1227.43 1229.5 
1220.95 1226.31 1216.26 1207.1 1212.12 1252.37 1247.9 1209.4 1249.98 
1230.85 1208.04 1249.68 1252.49 1252.95 1253.14 1252.75 1225.32 1225.71 
1210.55 1219.05 1229.55 1233.83 1223.77 1228.2 1252.69 1251.93 1251.31 
1229.1 1236.62 1249.21 1251.79 1251.21 1202.84 1221.23 1225.57 1222.77 
1223.56 1221.01 1223.6 1220.55 1229.76 1222.47 1247.66 1235.61 1205.76 
1211.66 1240.31 1246.99 1247.42 1221.36 1219.49 1219.33 1232.36 1234.65 
1223.44 1212.73 1229.75 1209.68 1226.05 1232.19 1203.83 1223.03 1218.18 
1209.6 1217.64 1231.12 1210.63 1222.44 1198.27 1221.61 1204.93 1236.58 
1243.02 1235.8 1237.49 1198.82 1225.35 1200.38 1182.7 1203.09 1251.11 
1250.85 1247.94 1252.84 1253.04 1250.67 1253.27 1253.16 1252.49 1253.26 
1252.77 1251.37 1247.26 1253.34 1253.3 1253.05 1253.48 1244.52 1253.4 
1253.3 1248.37 1250.37 1253.39 1251.92 1253.13 1253.53 1246.14 1250.77 
1253.59 1253.4 1246.77 1252.66 1248.91 1247.12 1253.63 1253.09 1253.64 
1253.22 1248.16 1246.54 1243.99 1253.71 1253.31 1253.52 1253.57 1253.71 
1252.21 1253.9 1253.56 1252.97 1246.03 1253.47 1253.51 1253.31 1253.22 
1253.92 1254.07 1253.52 1254.05 1252.53 1253.59 1253.38 1252.43 1253.89 
1254.07 1254.38 1253.69 1253.72 1253.77 1253.47 1253.42 1253.73 1253.96 
1253.72 1254.44 1253.42 1253.41 1253.57 1253.38 1253.95 1254.56 1254.48 
1254.39 1252.47 1253.7 1253.7 1253.68 1253.89 1254.13 1254.07 1254.59 
1252.61 1253.18 1253.87 1253.85 1253.87 1253.78 1253.59 1253.94 1253.77 
1254.04 1253.17 1253.54 1253.64 1253.87 1253.62 1253.85 1253.45 1253.89 
1254.18 1254.09 1254.62 1253.73 1253.53 1253.65 1253.63 1253.71 1253.91 
1253.66 1254.32 1254.62 1254.41 1254 1253.37 1253.88 1253.7 1253.96 
1254.04 1253.44 1254.08 1254.06 1253.95 1253.75 1253.89 1253.69 1254.11 
1254.21 1253.55 1253.68 1254.27 1254.11 1254.38 1254.64 1254.34 1254.5 
1254.15 1253.82 1253.59 1253.76 1254.29 1253.99 1254.21 1254.51 1254.63 
1254.56 1254.3 1253.58 1253.46 1253.33 1254.37 1254.3 1254.43 1253.85 
1254.46 1253.31 1253.3 1254.06 1254.16 1254.25 1253.33 1253.25 1254.51 
1254.63 1254.37 1253.45 1253.21 1253.98 1253.07 1253.27 1253.97 1254.14 
1254.18 1253.41 1253.42 1253.57 1254.1 1254.21 1254.33 1253.18 1253.21 
1254.54 1254.37 1253.36 1254.03 1253.26 1253.31 1253.85 1253.62 1254.19 
1254.04 1253.23 1253.27 1254.14 1254.23 1252.71 1253.06 1247.94 1253.11 
1253.17 1253.58 1254.02 1253.75 1253.16 1253.14 1253.83 1254.16 1253.36 
1250.41 1248.84 1253.07 1253.63 1253.64 1253.38 1253.77 1253.09 1254.04 
1254.4 1254.25 1250.28 1252.45 1253.38 1254.43 1253.93 1254.26 1252.4 
1251.97 1252.52 1252.95 1254.25 1253.86 1254.07 1249.54 1250.26 1253.33 
1246.55 1253.98 1253.29 1247.49 1253.4 1249.37 1252.7 1249.88 1252.8 
1251.77 1251.54 1250.46 1250.7 1248.57 1199.36 1251.28 1254.2 1253.87 
1253.06 1253.55 1253.72 1253.44 1253.42 1253.89 1253.94 1253.99 1253.94 
1253.97 1254.07 1254.03 1253.98 1254.29 1254.11 1254.06 1254.08 1254.13 
1254.15 1254.28 1254.17 1254.12 1254.03 1254.12 1254.02 1254.31 1254.04 
1254.02 1254.02 1254.19 1253.89 1254.21 1254.29 1254.29 1254.23 1253.98 
1253.9 1253.69 1254.23 1253.79 1254.03 1254.05 1253.65 1254.22 1253.44 
1253.52 1253.21 1253.02 1253.8 1254.12 1254.03 1254.15 1254.22 1254.19 
1254.39 1253.74 1254.13 1233.46 1253.38 1254.55 1254.21 1254.47 1254.28 
1253.76 1252.47 1252.76 1254.43 1253.43 1252.69 1254.21 1253.73 1251.72 
1253.79 1253.79 1232.69 1251.58 1254.3 1254.38 1253.94 1252.46 1252.49 
1254.43 1252.46 1254.29 1252.43 1254.06 1254.13 1253.63 1238.05 1252.93 
1254.16 1254.01 1222.77 1172.15 1254.46 1252.82 1252.51 1252.71 1252.25 
1252.35 1253.85 1253.03 1235.78 1246.99 1252.82 1254.18 1252.62 1247.16 
1253.29 1253.38 1252.69 1253.54 1254.51 1253.49 1253.34 1254.32 1252.48 
1254.52 1253.69 1253.31 1210.47 1252.43 1252.82 1224.83 1252.62 1254.17 
1254.19 1252.3 1252.38 1253.84 1252.69 1253.04 1254.3 1253.76 1253.27 
1254.48 1252.28 1252.79 1254.31 1254.44 1254.11 1252.95 1252.59 1254.42 
1226.41 1253.04 1253.96 1250.99 1241.49 1252.56 1252.63 1252.79 1254.34 
1252.3 1254.57 1253.85 1253.55 1252.6 1254.08 1233.97 1253.56 1251.95 
1253.72 1228.77 1253.33 1252.37 1252.33 1252.37 1254.14 1254.53 1224.52 
1251.82 1254.63 1254.36 1253.17 1254.04 1252.7 1254.46 1254.54 1254.57 
1253.43 1252.65 1254.04 1254.09 1223.81 1250.35 1254.13 1251.98 1188.48 
1186.5 1253.78 1253.69 1241.8 1252.53 1253.93 1252.89 1253.97 1254.08 
1254.18 1254 1254.53 1253.46 1252.36 1254.44 1253.88 1251.76 1253.59 
1252.39 1249.54 1252.43 1252.45 1253.84 1254.32 1252.01 1252.6 1239.02 
1254.32 1246.52 1252.35 1252.52 1254.63 1252.67 1253.54 1252.32 1252.66 
1253.63 1252.75 1252.62 1252.31 1253.62 1181.97 1196.82 1148.66 1165.68 
1176.48 1148.28 1154.79 1220.7 1163.78 1167.38 1160.25 1172.81 1181.43 
1174.11 1156.61 1158.95 1165.6 1152.88 1168.95 1173.86 1169.28 1179.62 
1218.38 1151.88 1195.15 1182.46 1157.83 1179.25 1182.19 1175.62 1179.28 
1163.12 1171.21 1185.45 1182.23 1195.79 1151.97 1175.53 1172.09 1242.8 
1188.82 1194.97 1176.59 1158.58 1172.66 1166.56 1157.7 1158.84 1167.19 
1159.87 1252.17 1233.55 1251.59 1189.45 1199.6 1168.4 1162.85 1233.56 
1252.07 1173.12 1252.25 1238.07 1193.16 1222.25 1211.42 1181.33 1251.92 
1251.49 1251.85 1185.53 1193.09 1180.94 1243.26 1252.36 1191.91 1251.84 
1235.08 1178.41 1185.94 1194 1252.29 1247.05 1182.27 1250.66 1199.46 
1251.66 1252.37 1251.91 1251.74 1254.78 1192.56 1251.88 1251.96 1251.92 
1251.53 1251.47 1251.78 1251.62 1251.86 1189.18 1251.82 1251.58 1254.31 
1251.35 1201.73 1251.58 1191.98 1189.98 1196.66 1192.95 1251.65 1252.05 
1252.2 1254.79 1195.37 1251.52 1251.66 1252.32 1193.74 1254.71 1254.8 
1232.04 1182.28 1252.35 1252.93 1254.56 1254.32 1254.78 1253.91 1254.79 
1253.48 1253.96 1253.46 1252.94 1179.75 1251.68 1231 1251.87 1252.09 
1252.01 1249.81 1252.17 1252.29 1252.31 1252.16 1252.32 1254.77 1254.7 
1251.93 1248.55 1252.05 1254.79 1254.76 1254.77 1252.07 1251.41 1195.51 
1194.49 1192.23 1191.46 1254.56 1251.24 1189.98 1192.79 1186.28 1199.03 
1190.28 1251.08 1193.12 1252.21 1192.07 1250.7 1198.26 1168.02 1146.82 
1233.71 1216.58 1171.25 1149.63 1153.59 1174.4 1149.11 1186.13 1207.51 
1178.15 1199.77 1175.42 1190.22 1165.77 1150.5 1206.09 1190.91 1160.24 
1175.73 1198.73 1243.22 1212.94 1172.8 1157.42 1169.23 1214.48 1166.68 
1155.98 1189.13 1174.16 1251.69 1189.27 1252.25 1203.09 1164.72 1248.26 
1167.19 1159.93 1247.67 1193.31 1251.89 1161.56 1242.97 1174.34 1224.92 
1163.9 1252.06 1254.78 1254.67 1254.79 1247.26 1175.66 1190.98 1252.25 
1251.85 1251.91 1198.23 1252.35 1194.55 1193.53 1251.49 1185.43 1251.89 
1237.51 1251.66 1254.44 1249.73 1251.66 1251.52 1251.55 1251.08 1252.15 
1251.84 1251.61 1251.37 1251.81 1251.83 1251.95 1252.1 1252.23 1252.24 
1252.11 1251.75 1252.21 1252.31 1251.9 1248.88 1251.59 1254.65 1252.4 
1252.28 1252.33 1251.34 1193.2 1251.84 1254.12 1254.77 1254.76 1254.8 
1242.69 1252.02 1251.6 1251.31 1254.77 1251.91 1252.64 1252.65 1253.21 
1253.22 1253.7 1253.73 1254.16 1254.44 1254.78 1254.75 1251.84 1254.75 
1254.8 1174.94 1182.87 1164.68 1224.82 1164.03 1187.66 1151.54 1184.6 
1189.65 1193.14 1231.54 1174.07 1175.35 1250.36 1211.26 
METADATA
INFORMATION 0

VECTORS PREV_VEL double
0 1.72595e-13 -0.0830173 3.55478 7.57053 -0.228166 6.93841 7.75022 -0.126748 
3.68732 8.75332 -0.179516 8.14526 6.08791 -0.194896 1.0969 8.70209 -0.156956 
6.70508 6.32454 -0.178582 7.84861 4.53137 -0.214173 -1.12166e-08 8.35003 -0.20456 
6.55514 7.95667 -0.200882 5.24861 8.79682 -0.151114 2.32959 9.00335 -0.149134 
8.4107 5.73268 -0.148093 8.21747 14.2449 -13.4688 3.66814 14.5906 -11.1346 
10.6763 10.2928 -10.6829 12.2 9.02668 -11.2832 6.80396 11.32 -7.5713 
11.8619 6.84845 -8.8027 7.23569 8.96356 -3.984 1.38996 11.6732 -5.34866 
4.9755 12.6178 -8.64219 1.55903 7.9075 -0.238424 8.97207 5.73103 -2.94405 
3.06448 11.9936 -6.97927 7.2906 12.5064 -10.178 3.99288 9.91647 -3.47493 
7.09347 10.1855 -6.08999 4.51242 9.56617 -3.26188 8.61242 8.3394 -4.77441 
0 13.6443 -8.71794 6.16167 9.26366 -3.95689 9.92549 5.73046 -4.29224 
0.775804 11.5075 -5.75755 5.484 7.95554 -0.195902 10.2645 12.7818 -13.6272 
8.56103 9.19085 -6.39855 11.8792 10.041 -11.8552 5.17627 10.7477 -5.82824 
5.58046 10.4162 -4.85136 10.7491 8.07928 -8.27058 13.734 10.0836 -14.4808 
9.98713 8.47503 -8.00666 2.3367 8.07706 -0.198772 1.77781 14.9083 -11.3005 
8.21602 12.2262 -10.7234 3.63001 11.4527 -5.65949 8.38988 7.2926 -3.45195 
8.39571 10.5432 -7.7448 2.14182 11.8317 -6.05319 0.908553 12.7385 -7.44478 
6.48406 27.1662 -41.5504 0 10.9629 -4.19367 11.6079 19.5383 -25.292 
15.0713 14.5117 -21.4773 10.8515 6.77151 -6.96586 21.4682 16.5985 -37.806 
18.1169 18.1658 -32.6538 15.6166 11.4906 -18.6539 10.0719 10.9491 -10.6115 
10.0476 25.4465 -38.6785 6.65502 8.9629 -2.43324 3.54006 28.3473 -45.9074 
20.2585 19.9147 -44.8085 10.3568 6.99561 -6.22109 14.2713 24.2049 -42.6589 
6.7982 14.3241 -12.4174 7.48469 7.89153 -3.01342 3.06853 11.6909 -5.31417 
6.35317 27.9588 -47.0181 4.2212 28.7077 -53.8755 18.5348 22.2573 -49.5001 
5.73636 28.4732 -54.8479 21.2346 19.9153 -54.4709 0 8.12058e-13 -108.773 
6.31881 5.55557 -108.638 0 10.1447 -108.706 6.37823 6.42656 -108.726 
6.499 3.75218 -108.635 5.23384 7.46661 -108.71 3.77786 8.22368 -108.605 
2.56282 8.15412 -108.67 4.26866 7.64439 -108.67 1.5201 8.79461 -108.688 
9.22982 7.61176 -103.049 11.3697 6.56428 -100.376 2.36825 14.0094 -99.3281 
8.92827 6.13533 -103.955 4.43781 7.03986 -108.617 10.0315 5.79163 -102.679 
10.384 7.6528 -101.06 17.3358 12.8691 -85.983 10.2162 6.94872 -101.734 
7.63554 10.759 -101.07 6.04719 11.0167 -102.675 7.66608 12.0699 -99.6017 
6.2718 7.65282 -108.672 4.68459 9.66718 -105.064 2.22829 12.4998 -102.749 
11.6445 11.3182 -95.7197 4.36581 13.4528 -99.3659 0 12.0818 -102.807 
8.79212 8.65947 -103.421 3.31692 8.77156 -108.68 2.64583 9.97325 -108.643 
4.32485 7.36809 -108.696 1.18482 9.05649 -108.703 8.73505 10.8026 -100.652 
4.31914 10.2655 -104.918 8.13812 5.974 -108.609 1.20233e-17 15.0877 -97.585 
0.435375 8.26844 -108.665 0.70045 11.0866 -104.429 13.9136 18.0896 -83.5336 
2.76878 10.8036 -104.7 7.34439 13.541 -97.2905 10.2736 8.5171 -100.841 
6.8949 9.53808 -103.781 8.54295 6.50225 -104.495 3.62023 11.4028 -103.461 
12.4111 16.1315 -88.4541 10.0464 10.7604 -98.6097 0.682601 13.2669 -101.015 
1.15728 11.7491 -103.259 11.8 9.63867 -97.6639 4.3891 10.9665 -104.112 
7.80989 8.95385 -104.083 0.803486 8.17292 -108.647 9.50393 12.8811 -96.6902 
6.23556 4.25385 -108.651 11.5661 7.89061 -99.1517 7.0334 8.85363 -104.588 
8.46975 9.63235 -102.059 9.03838 5.65141 -102.706 1.51802 12.3808 -102.79 
6.12821 9.72548 -103.513 5.09669 11.6114 -102.159 4.79138 12.5928 -100.753 
3.3234 13.6629 -99.3421 13.608 25.4683 -60.2577 18.6691 20.8258 -67.5288 
4.71998 27.7649 -65.8631 20.8911 14.9885 -75.9894 12.6762 24.2891 -70.3565 
16.1835 22.1686 -69.9973 20.4189 19.6831 -64.9654 19.0521 19.4713 -70.8309 
16.6765 22.9678 -64.7539 5.49088 28.501 -57.3924 17.3851 23.2153 -57.347 
3.64738 8.3969 -0.194176 3.59221 7.90457 -0.214426 3.16856 8.49358 -0.186912 
3.85166 7.76393 -0.197557 4.39352 8.1218 -0.144652 2.33278 8.58821 -0.171381 
1.97616 8.50072 -0.190088 1.31664 8.32426 -0.195694 6.01907 7.95611 -0.19839 
6.74221 7.8559 -0.164697 0.326351 8.18792 -0.188881 0.746202 8.24205 -0.177643 
6.81547 6.99903 -0.15406 7.30405 6.5923 -0.196491 7.74909 6.58869 -0.203644 
6.36498 3.67481 -0.188987 4.88949 2.82293 -0.164366 4.05533 2.34133 -0.141238 
3.31015 1.91111 -0.117052 2.79755 1.61516 -0.103634 2.31085 1.33417 -0.100971 
1.85233 1.06944 -0.0969046 1.46503 0.84583 -0.0908552 1.109 0.640277 -0.0831757 
0.799625 0.461661 -0.0794146 0.481659 0.329554 -0.0842525 0.238442 0.137664 -0.0803694 
8.10882 5.08749 -0.183583 0 0.27685 -0.0799467 0 0.559441 -0.0825413 
2.7278e-18 0.875264 -0.0888344 -4.83381e-17 1.2229 -0.0932715 0 1.57881 -0.0915616 
0 1.98685 -0.0947375 0 2.47662 -0.102909 0 2.9661 -0.105221 
0 3.5532 -0.113027 0 4.1994 -0.122907 0 4.91355 -0.133565 
0 6.08542 -0.197724 -6.34786e-09 7.45743 -0.207269 16.9085 12.5106 -21.8541 
18.215 13.6518 -25.3839 19.0777 14.4438 -28.1334 19.9781 15.2184 -31.2555 
20.8098 15.9418 -34.4719 21.9803 16.9298 -41.0223 22.4508 17.2128 -44.2279 
22.7513 17.2839 -47.4524 23.0634 17.3263 -50.6501 23.3786 17.3423 -53.8132 
23.3177 17.1495 -57.0465 23.2396 16.9368 -60.299 22.9462 16.7204 -63.8743 
22.777 16.3767 -66.6877 22.3183 16.0002 -69.8531 21.6191 15.5013 -72.9465 
10.7905 6.22989 -6.30717 19.7161 14.3098 -79.6025 18.3464 13.8006 -83.1446 
16.0288 12.1639 -88.8532 14.7144 11.4236 -91.6796 13.2338 10.5313 -94.7471 
11.6805 8.74569 -98.4239 12.6328 7.29353 -98.1051 14.3759 8.2999 -94.9473 
16.0774 9.28223 -91.7048 17.5909 10.1597 -88.5466 18.8169 10.8639 -85.5778 
19.9778 11.5341 -82.6938 21.0712 12.1654 -79.8238 21.9692 12.6838 -76.9127 
22.7887 13.157 -73.9382 23.5532 13.5984 -70.9327 24.1379 13.9416 -67.816 
24.624 14.2199 -64.6364 24.8062 14.3218 -63.452 25.0229 14.4469 -58.2635 
25.156 14.5237 -55.0774 25.0947 14.4884 -51.8615 24.845 14.3442 -48.6358 
24.1293 14.8819 -45.3122 24.1777 13.9589 -42.2406 23.6388 13.6478 -39.1106 
23.1218 13.3545 -36.1237 22.2152 12.8259 -32.9765 21.2704 12.2804 -29.775 
20.3023 11.7215 -27.0477 19.1661 11.0655 -24.0844 17.9277 10.3505 -21.1116 
16.4991 9.5257 -18.0472 15.0346 8.84597 -15.2152 12.882 7.4374 -11.0279 
10.2886 7.25241 -101.444 10.7353 6.77572 -101.123 0 12.0381 -6.0078 
0 7.9877e-15 -0.696168 -5.70831e-17 1.9523e-15 -1.57869 -1.16388e-16 3.72614e-15 -2.67979 
0 4.60593e-16 -4.14326 1.16167e-32 3.38005e-16 -6.02009 0 2.37893e-14 -8.50778 
0 1.99211e-14 -11.8083 5.58165e-19 5.31617e-15 -15.4596 3.76913e-18 1.8225e-15 -20.0284 
2.59329e-18 3.24955e-15 -25.2581 -4.76316e-16 5.55641e-15 -30.623 0 1.36641e-14 -36.3916 
0 2.52116e-14 -42.2958 0 7.87738e-14 -48.2618 0 1.07848e-13 -54.2759 
0 1.01645e-13 -60.3107 0 7.16449e-14 -66.326 -9.19312e-17 3.01887e-14 -72.2278 
2.48502e-16 9.94541e-15 -77.8914 -6.66953e-16 1.77805e-14 -83.2767 -2.34497e-16 3.21285e-14 -88.4006 
-7.37873e-17 5.96577e-14 -92.9166 0 2.76687e-14 -97.1285 0 1.38503e-14 -100.333 
2.36576e-17 1.16452e-14 -102.772 -1.24665e-17 3.26736e-15 -104.75 3.60232e-18 2.24038e-14 -106.169 
5.79451e-17 1.48669e-15 -107.309 8.2024e-18 1.04131e-15 -108.142 1.72758e-18 17.2596 -94.0789 
-4.68892e-18 19.0862 -90.7955 0 20.7115 -87.6704 -5.0884e-17 22.2103 -84.592 
-1.37253e-16 23.5191 -81.6012 1.84951e-16 24.7874 -78.4633 0 25.8146 -75.5849 
0.00363396 26.7646 -72.5217 8.58808e-17 27.288 -70.4776 1.84643e-16 28.0423 -66.1363 
3.23792e-16 28.5488 -62.8861 -5.04745e-16 28.8553 -59.5337 1.26163e-16 29.0626 -56.1404 
0 28.9747 -52.8449 0 28.8278 -49.5797 0.589567 28.5726 -46.2454 
0 28.0078 -43.0935 0 27.4315 -39.8869 8.00298e-17 26.7804 -36.6954 
4.14609e-16 25.8976 -33.5859 3.41414e-16 24.8145 -30.578 1.17084e-16 23.6655 -27.6325 
0 22.4245 -24.6378 2.37685e-17 20.9228 -21.6185 1.45281e-16 19.3793 -18.6116 
0 17.5226 -15.3787 0 15.3732 -11.6909 8.75483e-17 13.2952 -100.699 
0.00283182 0.286709 -108.771 0 0.600088 -108.77 0 0.93592 -108.769 
4.33591e-19 1.29713 -108.767 2.84855e-18 1.68574 -108.767 2.41918e-18 2.14595 -108.762 
3.33342e-17 2.69917 -108.688 0 3.22053 -108.747 0 3.72637 -108.746 
1.44499e-21 4.5075 -108.728 0 5.62468 -108.681 0 7.10703 -108.333 
5.66897 3.27296 -108.672 4.77107 2.75457 -108.709 3.9777 2.29651 -108.725 
3.33262 1.92408 -108.736 2.76619 1.59705 -108.747 2.28316 1.31818 -108.716 
1.84893 1.06748 -108.762 1.46116 0.843597 -108.762 1.10449 0.637673 -108.765 
0.790242 0.456244 -108.769 0.503565 0.290732 -108.77 0.253725 0.146488 -108.773 
4.7069 10.5674 -5.23372 4.30083 10.2192 -4.28371 5.08693 11.5798 -7.08033 
3.89483 10.6462 -4.49484 4.26365 12.0014 -7.06417 12.2315 20.5856 -28.105 
12.777 21.5299 -30.8899 13.2578 22.393 -33.6704 13.6057 23.0102 -36.6617 
13.9536 23.6016 -39.6745 9.07253 15.6345 -16.3025 10.0083 17.1372 -19.4749 
10.8362 18.3493 -22.391 14.3103 24.75 -46.1959 14.3005 25.0603 -48.1543 
14.0214 25.2308 -53.2355 13.8171 25.346 -56.7352 9.11974 11.4105 -10.0238 
18.2214 21.9926 -46.2665 18.1956 21.4533 -43.3409 17.3933 21.3002 -40.1006 
16.9251 20.9164 -37.1045 16.4195 20.3335 -34.191 15.8655 19.5655 -31.3624 
15.1538 18.6574 -28.4735 14.3909 17.7303 -25.5864 13.5503 16.7037 -22.6873 
12.5632 15.5142 -19.8036 11.467 14.2071 -16.7784 7.75942 10.3684 -6.93625 
7.56443 11.0417 -8.03392 17.7683 22.896 -54.7314 18.1516 22.5766 -52.1157 
6.95696 10.5799 -6.71739 17.0308 23.0916 -61.0505 13.2974 25.0753 -63.624 
12.9868 24.6822 -66.9902 16.43 22.5682 -67.3756 12.3443 23.4818 -73.2861 
12.0137 22.6779 -76.2035 11.618 21.7767 -79.1069 11.0585 20.6372 -81.9503 
10.506 19.5141 -84.8507 9.84817 18.2184 -87.8069 9.14541 16.8475 -90.761 
8.21063 15.1325 -94.0658 14.5179 18.9901 -80.8891 15.0643 19.8668 -78.2069 
15.5226 20.6971 -75.5026 15.8727 21.4491 -72.7627 13.1623 17.1106 -85.9939 
10.9465 14.6254 -92.4283 8.37593 11.5999 -99.3347 6.60676 12.1056 -100.352 
6.69919 11.4688 -101.367 5.25661 28.2773 -59.9666 4.99133 28.024 -62.8815 
6.13549 28.1404 -49.7813 5.92296 28.3176 -52.4792 4.52908 27.2093 -68.9193 
4.37659 26.6454 -71.9997 4.15226 25.7034 -74.9465 3.55396 24.6842 -77.951 
3.69742 23.6308 -80.7643 3.48272 22.3927 -83.6472 3.26716 21.0341 -86.5958 
2.85521 19.3649 -90.0376 2.85722 17.8549 -92.6264 2.59748 15.97 -95.8827 
6.41862 27.5625 -44.2842 9.69568 24.6455 -35.7299 9.3135 23.8562 -32.776 
8.92787 22.9723 -29.8665 8.48379 21.8893 -27.0343 7.98129 20.7874 -24.2398 
7.49631 19.5388 -21.4096 6.94287 18.0768 -18.4529 6.11322 16.5748 -15.5524 
5.57082 14.518 -11.8407 5.04523 15.6469 -95.537 5.64993 17.424 -92.3138 
6.27275 19.065 -89.0898 6.81548 20.462 -86.0547 7.39198 21.8009 -83.0146 
7.90978 22.9272 -80.0225 8.36889 23.9107 -77.1084 8.8035 24.7784 -74.0856 
9.20982 25.5978 -70.9686 9.46157 26.1587 -67.8002 9.69656 26.6507 -64.6338 
9.89475 26.9684 -61.4812 10.0113 27.0978 -58.2425 10.0954 27.1539 -54.9978 
10.1992 27.223 -50.995 9.53748 26.2726 -47.4676 10.1277 26.3851 -45.1855 
10.0883 25.9179 -41.9483 4.03581 16.5052 -14.4151 4.42054 18.3359 -17.6853 
4.77991 19.9512 -20.7132 5.10562 21.3768 -23.6428 5.43661 22.622 -26.5823 
5.87814 23.6589 -29.4385 5.97625 24.81 -32.4089 6.16011 25.6475 -35.4209 
6.32134 26.4037 -38.4728 3.92269 12.2344 -101.8 3.30758 13.0394 -8.65264 
2.53851 11.5262 -103.869 3.17902 11.0923 -104.103 3.32003 11.5842 -5.46885 
0.509111 13.1367 -8.00452 1.54136 12.9361 -7.67206 1.15 12.2042 -6.39349 
3.2897 27.9514 -42.7613 3.13017 27.2227 -39.4244 2.9766 26.5159 -36.1979 
2.76132 25.5657 -33.1415 2.62431 24.469 -30.0938 2.44212 23.1754 -26.5836 
2.36375 21.9971 -24.0163 2.24007 20.5428 -21 2.10949 18.8534 -17.9102 
1.90523 16.7066 -14.2298 4.01514 28.5987 -51.465 3.78044 28.4745 -48.7195 
15.9575 15.4639 -24.2441 16.7202 15.6797 -26.0028 17.4637 17.2837 -29.893 
18.721 18.7076 -35.7269 19.3261 19.2472 -38.7967 19.7931 19.5822 -41.8037 
20.5838 19.9149 -48.0293 20.9092 19.9151 -51.2501 12.3755 11.8753 -14.5641 
13.7839 13.2403 -18.0875 20.9627 19.8379 -57.9691 20.6908 19.7605 -61.4672 
19.7355 19.5772 -67.8981 18.4626 18.7788 -73.9172 17.8632 18.0765 -77.0215 
17.0806 17.2212 -80.0128 16.2488 16.2301 -83.0697 15.3253 15.1322 -86.1683 
14.3048 13.9608 -89.2791 13.0386 12.6676 -92.4598 9.81979 9.38514 -100.376 
9.02348 8.10567 -103.224 5.37445 10.5852 -5.34926 4.87852 10.5821 -103.697 
5.28548 10.2623 -104.011 0.931419 10.1479 -3.04327 1.07355 11.5878 -5.55932 
3.9388 9.00106 -1.11897 4.2766 9.33385 -2.38091 2.75444 14.7442 -11.2148 
0.362165 11.2171 -4.92373 3.35773 9.21105 -2.21852 2.64414 11.7554 -5.65261 
2.63024 11.9174 -6.54342 2.24368 10.2975 -2.85053 7.64421 6.86415 -2.0032 
9.21818 8.39916 -6.19871 8.48995 7.7633 -4.04661 4.36374 9.66641 -3.32285 
4.15141 9.80958 -3.40992 6.39854 9.11926 -3.22536 18.737 22.2059 -52.516 
18.9312 22.1568 -55.4355 17.8588 22.5359 -59.8607 18.7994 21.4834 -61.5501 
18.7347 21.1569 -64.5185 9.32588 9.04576 -7.4228 8.47328 9.90866 -7.11312 
8.58903 8.72691 -5.51359 1.74768 11.7486 -5.68387 0.361937 9.82308 -2.7952 
7.85753 9.0702 -5.11688 9.79871 11.7288 -97.7332 8.58352 10.1342 -101.456 
8.14115 10.779 -100.878 8.24941 8.82212 -103.787 7.45529 8.90808 -104.314 
0.598818 8.22603 -108.657 2.16556 9.47041 -108.663 2.60582 9.09655 -108.656 
2.91599 8.44329 -108.675 4.01341 7.94566 -108.636 3.56357 8.4784 -108.64 
5.92624 6.34477 -108.627 5.91586 6.76893 -108.607 5.72608 7.55492 -108.692 
6.34685 5.96652 -108.68 7.25804 5.17829 -108.628 6.40979 3.91339 -108.622 
6.3227 4.07954 -108.631 7.35486 5.79385 -108.621 6.96062 9.21329 -104.164 
6.09145 10.3113 -103.133 5.23367 8.55612 -106.084 10.1286 6.39994 -102.182 
0.903028 11.3804 -103.91 9.58001 6.24798 -102.259 9.47356 5.71286 -102.694 
4.48479 8.69551 -106.796 6.52021 9.62967 -103.65 7.10737 8.35961 -106.179 
7.88596 7.05321 -105.724 6.0869 8.12411 -106.756 0.391617 10.6713 -106.315 
0.693203 11.9718 -103.043 2.66957 9.52737 -106.613 3.47825 10.1711 -105.904 
8.98679 5.87813 -103.291 8.83969 6.98158 -103.87 9.23746 7.3108 -103.028 
8.72094 6.33276 -104.245 7.47712 5.46367 -106.415 7.58494 6.09448 -106.279 
7.92552 4.81909 -105.304 7.72671 4.99738 -105.488 4.15031 11.9414 -102.236 
3.98017 11.1985 -103.766 9.64736 6.79693 -102.673 8.99062 6.6217 -103.756 
0.524173 0.617038 -0.0862123 0.816139 0.79805 -0.0820946 1.15087 1.00395 -0.08898 
0.234218 0.443234 -0.0803593 1.49993 1.2191 -0.0932344 1.90922 1.47024 -0.0963124 
2.38295 1.76017 -0.101905 2.89178 2.06944 -0.110024 0.250491 0.716253 -0.0798733 
3.45188 2.41297 -0.123349 0.257685 1.0516 -0.0873563 4.26726 2.84194 -0.143356 
0.270782 1.39979 -0.0838802 5.53142 3.56691 -0.198151 0.296357 1.81304 -0.0951008 
0.296502 2.23031 -0.0917283 0.302988 2.70214 -0.0939171 0.320949 3.25604 -0.106218 
0.32422 3.89052 -0.11815 5.56239 4.34177 -0.178083 0.431939 4.69641 -0.127889 
5.1956 4.61504 -0.188585 0.438949 5.57351 -0.163938 5.47932 5.15242 -0.182069 
0.431627 6.71997 -0.183799 5.19281 5.0431 -0.176423 5.21529 5.56212 -0.162048 
5.43163 6.06241 -0.16307 5.02119 5.88697 -0.18462 0.930376 7.14685 -0.198699 
5.30737 6.66032 -0.176894 4.46942 6.2581 -0.167362 1.18158 6.62525 -0.239741 
3.57474 5.52571 -0.24619 1.49159 6.85803 -0.222015 3.24173 5.57444 -0.252696 
1.85574 7.21878 -0.191868 3.31065 6.38265 -0.166081 3.21494 6.72563 -0.207561 
1.86405 6.49732 -0.196579 3.1736 6.92974 -0.201621 2.14278 6.66867 -0.204095 
2.82392 6.6754 -0.206258 2.88767 7.28708 -0.205094 0.527369 0.916833 -0.0830576 
0.844297 1.13957 -0.0843597 1.18781 1.37678 -0.0844507 1.54822 1.62295 -0.0899513 
1.97448 1.9004 -0.0919493 2.41318 2.19055 -0.0942772 2.89885 2.50175 -0.102604 
3.63539 2.97799 -0.120391 0.553435 1.25845 -0.0824292 0.582297 1.63127 -0.0902815 
0.610816 2.04793 -0.0955969 0.619993 2.47458 -0.0911916 0.632918 2.93824 -0.0877036 
0.652217 3.57937 -0.108578 0.659764 4.183 -0.120789 4.26279 3.633 -0.138691 
0.765269 5.34593 -0.0975566 4.38804 4.13591 -0.161151 4.05636 4.15408 -0.151704 
4.22353 4.68259 -0.164314 3.73258 4.68841 -0.15208 3.12085 4.40355 -0.129183 
1.31108 5.55581 -0.187161 2.78338 4.55173 -0.156625 2.45984 4.74573 -0.151756 
2.62784 5.74663 -0.166588 1.78563 5.46595 -0.149274 2.15694 5.68244 -0.167452 
0.871545 1.51131 -0.0878615 1.216 1.76164 -0.0816306 1.61994 2.05609 -0.0866469 
2.03566 2.37416 -0.0858452 2.52748 2.71438 -0.106001 3.64799 3.52182 -0.115367 
0.915085 1.90067 -0.09411 0.954475 2.33502 -0.0948957 0.969552 2.8008 -0.0956328 
0.992908 3.35337 -0.10801 1.0311 4.02113 -0.117563 3.26415 3.79973 -0.108913 
2.62011 3.71247 -0.0932874 2.24259 3.94197 -0.117966 2.0327 4.98611 -0.12487 
1.43992 4.63928 -0.130809 1.89201 4.17819 -0.101002 1.28505 2.19749 -0.0906891 
1.68713 2.62038 -0.0909539 2.18777 3.09955 -0.10603 1.34152 2.7026 -0.0969705 
1.29014 3.17012 -0.102694 1.40784 3.73589 -0.106946 1.69655 3.30128 -0.102763 
2.72199 3.24968 -0.102103 0.938475 4.75171 -0.125934 4.45421 3.30525 -0.138107 
3.03275 3.05992 -0.106517 11.7897 7.65445 -9.3837 13.6689 8.85755 -13.1519 
15.3282 9.93046 -16.5418 16.7802 10.9778 -19.9354 18.0693 11.8906 -23.1049 
19.2118 12.7091 -26.1281 20.1955 13.3879 -29.0073 21.5403 14.4763 -33.852 
22.2714 14.9623 -36.8645 22.83 15.2619 -40.0083 23.3435 15.5878 -43.1702 
23.6548 15.7588 -46.3542 21.0739 13.7071 -31.4498 23.9369 15.8553 -49.5828 
24.218 15.9416 -52.7925 24.2319 15.8724 -55.9852 24.1341 15.7389 -59.164 
24.0177 15.5855 -62.3862 23.6914 15.3415 -65.647 23.2244 14.9989 -68.8262 
22.5731 14.5838 -71.91 21.8302 14.0883 -74.9601 20.9306 13.5691 -78.03 
19.9343 12.893 -81.1766 18.6938 12.2047 -84.33 17.359 11.5002 -87.4192 
16.0634 10.7926 -90.355 14.5434 9.85287 -93.5889 12.992 9.41462 -96.1721 
11.0229 8.36506 -99.6478 11.5676 7.3928 -99.5073 13.1063 8.44619 -96.6707 
10.8824 7.56287 -100.37 0 0.922278 -108.175 0 0.530928 -108.266 
0 0.233467 -108.367 0 1.34082 -108.135 0 1.77921 -108.122 
5.70958e-17 0.347439 -107.73 2.79232e-17 2.3039 -108 7.39404e-17 0.501471 -106.778 
4.34938e-19 2.81566 -107.997 1.32865e-18 0.639896 -105.465 1.94178e-17 3.4636 -107.913 
-8.2702e-18 0.836874 -103.83 2.23294e-17 4.26855 -107.73 0 1.05954 -101.568 
2.96574e-17 5.33302 -107.422 0 1.29936 -98.7196 1.24771e-16 6.54237 -107.08 
-1.06119e-16 1.68605 -95.0933 1.09409e-17 8.00413 -106.748 7.99762e-16 1.94565 -90.7513 
2.09432e-18 10.3778 -104.56 -1.57684e-16 2.21895 -85.7786 1.09669e-16 2.25382 -80.42 
-4.37574e-17 2.40986 -74.8969 3.629e-17 12.0873 -102.181 1.12061e-16 2.46264 -69.0633 
-6.7644e-17 14.8827 -98.1412 -5.32412e-16 2.51425 -63.24 -1.92478e-17 17.0572 -94.4544 
-3.24163e-17 2.52746 -57.2778 0 18.9079 -91.0394 0 2.5181 -51.2802 
0 20.533 -87.7495 0 2.50086 -45.3483 -1.09297e-17 21.9776 -84.5543 
0 2.45954 -39.5016 0 23.2195 -81.4393 0 2.44192 -33.6211 
-2.32597e-16 24.4194 -78.1679 -2.37646e-16 2.27764 -28.1388 1.71779e-16 25.3283 -74.9982 
2.71526e-18 2.24094 -22.7982 -3.08454e-17 26.1475 -71.748 1.98626e-18 1.83113 -17.9403 
-3.44964e-16 26.7431 -68.197 -1.09622e-16 1.64268 -13.6467 -2.0599e-16 27.249 -64.9509 
-1.59106e-16 1.40532 -10.093 -6.41106e-17 27.6275 -61.5271 0 1.06969 -7.16487 
-3.00492e-16 27.842 -58.0037 1.47726e-16 0.844726 -4.99985 -8.18966e-17 27.9394 -54.4495 
-4.47565e-17 0.640106 -3.38338 0 27.8413 -51.0234 8.1567e-18 0.483858 -2.05509 
3.41952e-17 27.6589 -47.6946 3.45105e-18 0.340939 -1.11969 -2.46096e-16 27.2702 -44.1278 
0 0.216172 -0.4507 0 26.7265 -40.7353 0 26.1459 -37.5245 
1.23038e-16 25.3348 -34.1909 0 0.87537 -0.646363 3.50181e-16 24.416 -30.9774 
1.24756e-18 1.25665 -0.676863 5.92155e-16 23.3447 -27.8751 0 1.67406 -0.718068 
3.85736e-17 22.101 -24.7354 1.45909e-17 2.13824 -0.78943 -9.19126e-17 20.7364 -21.5891 
0 2.64543 -0.845318 1.9977e-16 19.1402 -18.2793 0 3.18075 -0.875946 
0 17.1874 -14.7319 0 3.8393 -0.997988 0 14.5127 -10.1337 
-4.0302e-17 4.74296 -1.198 0 12.2528 -6.84129 0 5.66715 -1.3738 
0 7.12099 -1.90859 0 9.84601 -3.41274 0 0.533467 -0.588331 
0 8.21218 -2.18341 2.89757e-20 1.39686 -107.402 0 0.881632 -107.371 
0 1.9315 -107.293 0 2.49683 -107.204 9.31671e-17 3.2203 -107.031 
-1.08109e-18 1.1652 -106.096 9.64468e-17 3.97121 -106.843 -1.15434e-18 1.52015 -104.592 
0 5.0808 -106.434 9.52226e-18 1.91196 -102.62 9.68447e-17 6.31841 -105.948 
2.0624e-16 2.44504 -100.045 8.64386e-18 7.99627 -105.097 -7.66016e-17 3.06718 -96.6934 
-1.46215e-17 10.5919 -102.868 0 3.69169 -92.6766 -1.3019e-17 4.14773 -88.0599 
-2.92063e-17 4.50674 -82.9486 -4.39209e-17 4.69306 -77.4215 2.05085e-16 4.91967 -71.7782 
9.05765e-17 4.97423 -65.9896 -4.41211e-17 14.345 -98.3661 -7.80013e-16 5.03501 -60.1843 
-7.61409e-19 16.5948 -94.6672 0 5.05562 -54.246 3.871e-18 18.4274 -91.2316 
0 5.00602 -48.3999 5.11941e-17 20.1321 -87.7257 0 4.96222 -42.5401 
2.62966e-18 21.5744 -84.2876 0 4.9181 -36.7074 1.16714e-16 22.8065 -81.041 
0 4.68687 -31.1141 1.82576e-17 23.8827 -77.5593 1.02369e-18 4.55438 -25.6545 
-3.42155e-17 24.712 -74.1992 1.378e-18 4.09362 -20.6117 -2.69147e-16 25.3833 -70.6827 
1.89979e-19 3.66439 -15.8534 -5.81168e-16 25.9362 -67.1187 -2.30182e-16 3.0712 -12.0706 
-5.9193e-16 26.4025 -63.7037 0 2.44399 -8.706 -4.44956e-16 26.6227 -60.0255 
9.35196e-17 1.92712 -6.13132 -3.6576e-16 26.7917 -56.4235 2.52504e-17 1.46961 -4.18836 
-1.22056e-16 26.7881 -52.7065 1.93646e-18 1.10832 -2.70637 2.73968e-17 26.6863 -49.1562 
3.92255e-17 0.839373 -1.48637 2.13904e-16 26.357 -45.5584 -4.23661e-17 25.9451 -41.9979 
2.76586e-17 25.4089 -38.4681 0 24.7251 -34.9761 1.27336e-16 23.9035 -31.708 
0 1.30147 -1.39371 2.23001e-16 22.9173 -28.2992 -1.57543e-17 1.79123 -1.44424 
3.40758e-17 21.6946 -25.0143 4.80971e-18 2.33307 -1.5764 0 20.2882 -21.6348 
5.60142e-17 2.87623 -1.65674 0 18.7358 -18.1975 0 3.61063 -1.84699 
0 16.9205 -14.7692 0 4.42817 -2.07664 0 14.3377 -10.6375 
0 5.69212 -2.58719 0 10.3353 -5.6064 0 7.47765 -3.50071 
2.70316e-17 1.49136 -106.576 8.27888e-18 2.09651 -106.367 0 2.82057 -106.206 
5.19313e-17 3.6532 -105.944 2.29959e-16 4.59424 -105.634 -5.53052e-18 2.08551 -105.275 
7.81753e-17 6.07341 -104.929 4.52879e-17 2.61274 -103.426 1.03309e-16 7.91789 -103.81 
8.50011e-19 3.39713 -101.016 0 9.67885 -102.722 -2.20628e-16 4.25074 -98.0157 
1.8344e-16 11.209 -101.764 2.06421e-17 5.14768 -94.3255 -9.74679e-17 5.89867 -89.8856 
-1.32915e-16 6.42264 -84.9531 1.71771e-17 6.90118 -79.7922 1.18057e-16 7.1888 -74.302 
4.30939e-16 7.3748 -68.6776 -1.71044e-16 7.41333 -62.96 -4.49585e-17 13.601 -98.5361 
1.68453e-16 7.4789 -57.1382 0 15.8172 -95.0742 7.88575e-17 7.47598 -51.3696 
9.15513e-17 17.9174 -91.1609 -6.19177e-17 7.43485 -45.6066 7.74202e-17 19.7142 -87.414 
-9.90067e-17 7.35966 -39.8211 1.39763e-16 21.0285 -83.9772 0 7.15122 -34.2683 
1.2951e-16 22.1918 -80.418 0 6.88984 -28.7151 1.27982e-17 23.1629 -76.8188 
0 6.40571 -23.5181 3.13008e-16 23.9089 -73.2259 0 5.83419 -18.735 
-2.63728e-16 24.5147 -69.6159 -6.73209e-17 5.04369 -14.5123 -6.45567e-16 25.046 -65.9883 
-1.05221e-16 4.21932 -10.8015 -5.74353e-16 25.299 -62.1628 6.22601e-18 3.40292 -7.75377 
-3.70144e-16 25.4994 -58.4874 5.2012e-18 2.60779 -5.31903 -2.57901e-16 25.5699 -54.5462 
0 2.02951 -3.44807 -1.22717e-17 25.5614 -50.8172 -4.45814e-17 1.40675 -2.21643 
-8.29847e-17 25.3141 -46.9748 -4.98439e-17 24.9493 -43.3743 -8.52572e-17 24.5059 -39.4852 
-3.39754e-16 23.919 -35.9613 -3.31745e-17 23.2081 -32.4642 -3.60774e-21 22.2382 -28.8424 
2.39613e-17 1.91869 -2.31072 7.41862e-17 21.1553 -25.3641 -3.88161e-17 2.54745 -2.43415 
0 19.7941 -21.8987 4.29764e-18 3.37978 -2.77805 0 18.1653 -18.2822 
3.14437e-19 4.17262 -2.95811 0 16.2471 -14.5882 0 5.26706 -3.37253 
-1.09033e-17 14.3704 -11.4095 0 6.63514 -4.03162 -6.42135e-17 11.2152 -7.30383 
-5.06854e-17 8.82153 -5.56818 0 3.08527 -104.953 0 4.16421 -104.527 
0 5.38846 -104.079 -7.18743e-17 7.0745 -103.132 0 9.21299 -101.68 
1.06762e-16 4.13885 -101.891 0 12.0395 -99.4609 -1.92743e-17 5.24655 -99.0778 
-2.10649e-16 6.41705 -95.5274 -9.55838e-17 7.42384 -91.48 -3.18437e-16 8.2571 -86.7898 
-1.88476e-17 8.84759 -81.7539 2.44925e-17 9.29776 -76.5108 2.07923e-16 9.56697 -70.95 
6.61047e-16 9.72131 -65.534 5.00439e-16 9.80829 -59.9426 4.31622e-16 9.82049 -54.2897 
0 15.1802 -94.8313 1.3163e-15 9.78017 -48.5584 2.89363e-18 17.4864 -90.6844 
-7.15431e-16 9.72263 -43.0184 2.63974e-17 19.0685 -87.0001 -5.06325e-16 9.54855 -37.4909 
1.28025e-16 20.3383 -83.4127 0 9.27854 -32.0638 1.12419e-16 21.4376 -79.6932 
0 8.73246 -26.9014 3.56223e-16 22.3181 -75.9092 0 8.19469 -21.7855 
-3.12815e-17 22.9727 -72.151 0 7.27307 -17.3187 -2.02932e-16 23.5538 -68.489 
-1.02846e-16 6.29039 -13.2818 -2.76357e-16 23.865 -64.4415 -7.34557e-18 5.22017 -9.74475 
-2.35469e-16 24.1083 -60.5936 0 4.18996 -6.87224 -1.23961e-16 24.2366 -56.7021 
1.93974e-16 3.31846 -4.75428 -5.7417e-17 24.2978 -52.6471 -4.50146e-16 24.1623 -48.6451 
-3.7608e-16 23.8942 -44.7906 -2.78114e-16 23.4517 -40.9527 -1.87132e-16 22.9779 -36.9609 
-9.97825e-17 22.2981 -33.2599 -2.09421e-18 21.4757 -29.6195 -2.29249e-18 20.4765 -26.0206 
0 19.1819 -22.3307 1.35414e-16 3.79001 -4.10948 0 17.5953 -18.6598 
0 4.92248 -4.45728 0 15.5371 -14.595 0 6.17651 -5.05642 
-2.24719e-17 12.6322 -9.94463 0 7.63406 -5.76974 0 9.74833 -7.25355 
1.27536e-16 3.23754 -103.739 1.26236e-16 4.66592 -102.802 0 6.121 -102.318 
0 7.84541 -101.267 0 10.1809 -99.4405 0 12.5128 -97.6019 
0 5.96305 -100.025 0 7.42066 -96.6229 -2.302e-17 8.72135 -92.7834 
-7.71806e-16 9.77252 -88.2953 -5.90742e-16 10.648 -83.4567 4.66121e-17 11.2354 -78.386 
3.60377e-18 11.7363 -73.2507 4.08517e-16 11.9102 -67.798 8.61641e-16 12.0646 -62.382 
1.11172e-15 12.1797 -56.9983 5.05584e-16 12.1199 -51.5392 0 15.1194 -93.7809 
4.88489e-16 12.0724 -46.0324 0 16.6535 -90.4803 -1.57447e-15 11.9555 -40.5736 
0 18.2924 -86.5233 -3.35287e-16 11.673 -35.3291 6.07427e-17 19.541 -82.6869 
0 11.1665 -30.1879 -5.43312e-18 20.5367 -78.749 0 10.5319 -25.1469 
-4.0425e-17 21.2872 -74.8473 0 9.68262 -20.3644 -3.13826e-17 21.9343 -71.013 
0 8.54686 -16.06 0 22.366 -66.8718 -2.62126e-17 7.35693 -12.1916 
0 22.6697 -62.9205 0 6.09087 -8.79444 0 22.8384 -58.8228 
1.42562e-16 4.98481 -6.32888 0 22.8496 -54.7271 0 22.7997 -50.4579 
-1.60143e-16 22.624 -46.3952 1.28833e-17 22.3099 -42.2977 2.0679e-16 21.9169 -38.3066 
8.91626e-17 21.3071 -34.305 -7.82922e-19 20.5989 -30.4511 -3.19463e-18 19.6463 -26.7088 
-1.01146e-18 18.4519 -22.8507 0 17.0016 -19.242 0 5.49605 -5.88516 
0 15.0599 -15.2592 9.16972e-17 7.03362 -6.93962 0 12.6659 -11.3016 
0 8.80746 -8.09088 0 6.65786 -100.571 5.30723e-17 8.42984 -99.2912 
1.40173e-16 10.6896 -97.3661 0 13.4811 -94.7522 0 8.33135 -97.5828 
1.81343e-16 9.95467 -93.8256 -5.58115e-18 11.2159 -89.6009 -1.3239e-16 12.1453 -84.9701 
-2.70587e-16 12.9611 -80.1974 9.28532e-17 13.4889 -75.1575 -2.12781e-16 13.9444 -70.1481 
1.74477e-16 14.0878 -64.6649 1.36878e-16 14.171 -59.3952 7.05642e-16 14.2467 -54.0672 
9.37533e-18 14.2346 -48.9126 -5.55752e-16 14.1119 -43.5104 2.5523e-16 15.6983 -90.0876 
-1.09085e-15 13.8145 -38.4238 -7.63943e-17 17.4284 -85.7807 -4.98684e-17 13.3962 -33.5029 
-6.67456e-17 18.6225 -81.6148 6.16206e-17 12.787 -28.4928 -9.19045e-17 19.5221 -77.5799 
0 12.0587 -23.6155 -8.82328e-17 20.1733 -73.5995 0 10.9525 -19.184 
-3.64747e-17 20.6559 -69.3897 0 9.74476 -14.9526 1.92508e-17 21.1039 -65.3111 
0 8.16666 -11.4043 1.3234e-16 21.2642 -61.1676 0 7.49085 -8.81105 
8.72056e-17 21.2955 -56.9474 0 21.3532 -52.6934 0 21.2489 -48.3469 
6.59275e-17 21.0322 -44.134 4.26149e-17 20.6291 -39.868 3.08076e-16 20.1287 -35.4646 
-2.39534e-16 19.4769 -31.5011 1.98985e-17 18.6238 -27.4651 0 17.5441 -23.5226 
0 16.0696 -19.4503 0 14.7894 -16.2515 0 12.2714 -12.251 
0 9.87073 -10.5999 -2.96019e-17 10.6552 -95.4208 -4.46003e-17 13.1359 -93.0033 
-2.438e-16 12.6285 -90.7398 -1.74588e-16 13.4939 -86.303 -1.80199e-17 14.341 -81.7631 
2.86967e-16 15.1245 -77.1121 6.18422e-16 15.6369 -72.1256 -4.93929e-16 16.0658 -67.07 
-4.78665e-16 16.1692 -61.6988 5.95133e-16 16.1742 -56.3928 2.16854e-16 16.1416 -51.3634 
-2.72266e-16 16.1132 -46.3221 7.26644e-16 15.8978 -41.404 -1.76538e-16 15.0392 -88.6801 
-6.56555e-16 15.5258 -36.4902 -3.94856e-16 16.6033 -84.4395 3.9897e-16 14.9633 -31.7957 
-3.58738e-16 17.5732 -80.3923 1.19144e-16 14.2738 -26.836 5.08839e-17 18.428 -76.0658 
0 13.2651 -22.4085 2.74149e-16 18.8761 -71.7992 0 12.0464 -17.8754 
-4.82365e-16 19.2517 -67.505 0 10.5281 -13.3098 1.67642e-16 19.8417 -63.4134 
3.25258e-16 19.6385 -59.7057 2.07349e-16 19.7367 -55.4028 0 19.7357 -50.6384 
0 19.542 -46.1339 -5.00852e-16 19.2596 -41.6748 -2.97091e-16 18.8201 -37.2512 
2.80759e-16 18.3193 -32.7332 1.40751e-16 17.562 -28.706 0 16.5772 -24.4208 
0 15.228 -20.0528 0 13.0541 -15.2171 6.45298e-17 14.7248 -86.7295 
2.53759e-17 15.5734 -83.1079 -7.82848e-17 16.4139 -78.8724 5.47609e-16 17.0998 -74.2756 
3.4115e-16 17.5687 -69.4494 -2.14856e-16 18.0674 -63.9426 4.78454e-16 18.0694 -58.5433 
1.00236e-16 17.9865 -53.4655 0 17.9767 -48.6044 9.98398e-17 17.7929 -43.8736 
-1.04765e-15 17.5272 -39.2563 -4.11756e-16 17.0333 -34.6394 2.35879e-16 16.4707 -29.9716 
7.15085e-17 15.4865 -25.5968 0 14.3779 -21.2955 0 13.1066 -17.34 
5.23193e-17 2.68379 -3.28222 0 10.445 -5.16278 0 10.1312 -8.70563 
0.793295 0.458007 -0.681068 1.14147 0.659022 -0.698787 0.462178 0.266837 -0.637804 
1.54165 0.890065 -0.766472 0.201922 0.116579 -0.504072 1.97171 1.13836 -0.807378 
2.44221 1.41 -0.864491 0.290599 0.167777 -1.10905 2.97565 1.71798 -0.925312 
0.418934 0.24187 -2.0535 3.61571 2.08752 -1.04474 0.569911 0.329037 -3.3436 
4.4213 2.55263 -1.2439 0.718817 0.415007 -5.01612 5.76023 3.32565 -1.82954 
0.958228 0.55323 -7.20166 7.13077 4.11693 -2.49145 1.18639 0.684961 -10.0095 
8.64639 4.99197 -3.40958 1.36161 0.786119 -13.532 1.64943 0.952294 -17.908 
1.87881 1.08472 -22.7847 9.61118 5.54899 -5.34693 1.88783 1.08993 -28.1529 
2.10175 1.21344 -33.6595 12.8938 7.44418 -10.8366 2.13358 1.23182 -39.5208 
14.7355 8.50751 -14.4822 2.16555 1.25027 -45.3546 16.2953 9.40807 -17.7538 
2.18003 1.25863 -51.2857 17.7111 10.2255 -20.9674 2.17956 1.25836 -57.276 
18.9778 10.9568 -24.1672 2.17847 1.25773 -63.1832 20.0638 11.5838 -27.3748 
2.11782 1.22272 -69.1042 21.0074 12.1286 -30.4222 2.10603 1.21591 -74.984 
21.8192 12.5973 -33.5122 1.90767 1.10139 -80.451 22.4765 12.9767 -36.8361 
1.90767 1.10139 -85.8362 23.0256 13.2938 -40.0129 1.65601 0.956095 -90.6229 
23.5156 13.5767 -43.2874 1.52896 0.882742 -95.0549 23.83 13.7582 -46.6505 
1.21666 0.702436 -98.6783 24.0796 13.9023 -49.8759 0.937418 0.541216 -101.589 
24.2213 13.9841 -53.3903 0.712055 0.411103 -103.829 24.2027 13.9734 -56.8561 
0.562196 0.324582 -105.51 24.0696 13.8965 -60.0431 0.439777 0.253904 -106.788 
23.8723 13.7826 -63.3969 0.31499 0.181858 -107.722 23.4766 13.5542 -66.7727 
0.199772 0.115338 -108.368 22.9746 13.2643 -70.0504 22.3494 12.9033 -73.3382 
0.467849 0.270112 -108.263 21.6076 12.4751 -76.3742 0.800095 0.461933 -108.148 
20.772 11.9927 -79.4962 1.14245 0.659592 -108.12 19.7563 11.4062 -82.6107 
1.53102 0.883929 -108.087 18.6006 10.739 -85.7031 1.96165 1.13255 -108.039 
17.2664 9.96869 -88.8955 2.46115 1.42094 -107.959 15.7226 9.07741 -92.2947 
2.96215 1.71019 -107.91 14.05 8.11175 -96.0444 3.5811 2.06754 -107.813 
12.2793 7.08944 -99.2294 4.36833 2.52204 -107.628 10.8674 6.27424 -101.469 
5.87558 3.39225 -106.859 7.89629 4.5589 -105.604 10.9655 6.33087 -7.6456 
8.87723 5.12524 -104.325 1.20615 0.696368 -1.45732 0.739367 0.426871 -1.45502 
1.67522 0.967184 -1.56742 2.17659 1.25665 -1.67207 2.7533 1.58961 -1.80607 
3.4699 2.00334 -2.03209 4.25709 2.45782 -2.28995 0.987543 0.570155 -2.68667 
5.5058 3.17876 -2.88239 1.28067 0.739394 -4.18094 6.99542 4.03879 -3.69127 
1.65443 0.955178 -6.19086 2.14653 1.2393 -8.79187 2.58085 1.49004 -11.8444 
3.14613 1.81641 -16.0082 3.62102 2.09059 -20.5491 3.8268 2.20939 -25.7023 
4.03455 2.32934 -31.1542 4.25913 2.45899 -36.7553 12.4196 7.1704 -10.5055 
4.27711 2.46938 -42.6261 14.3769 8.30045 -14.1872 4.34207 2.50688 -48.3873 
15.9136 9.18765 -17.5522 4.35889 2.51659 -54.3046 17.3742 10.0309 -21.0204 
4.35661 2.51527 -60.0938 18.6354 10.7591 -24.4045 4.32804 2.49878 -66.0122 
19.6414 11.3399 -27.6805 4.21991 2.43636 -71.8594 20.5471 11.8628 -31.0499 
4.09525 2.36438 -77.5135 21.2453 12.2659 -34.2867 3.88338 2.24206 -82.9831 
21.8544 12.6176 -37.7121 3.59061 2.07303 -87.9523 22.3743 12.9177 -41.019 
3.24462 1.87327 -92.659 22.7735 13.1482 -44.5787 2.67585 1.54489 -96.6653 
23.0207 13.291 -48.0014 2.14635 1.23919 -100.006 23.1597 13.3712 -51.545 
1.69962 0.98127 -102.598 23.2513 13.4241 -55.0739 1.28757 0.743376 -104.641 
23.2444 13.4201 -58.6398 0.981388 0.566602 -106.147 23.0496 13.3076 -62.0001 
0.758721 0.438045 -107.367 22.7541 13.137 -65.6145 22.3161 12.8841 -68.9691 
21.7738 12.5711 -72.5136 21.1192 12.1931 -75.6989 20.3056 11.7234 -79.0084 
1.21257 0.700075 -107.358 19.4009 11.2011 -82.2675 1.66225 0.959694 -107.285 
18.2943 10.5622 -85.5411 2.16955 1.25258 -107.171 16.9603 9.79198 -88.9277 
2.74224 1.58322 -107.033 15.4708 8.93205 -92.4081 3.39955 1.96272 -106.849 
13.508 7.79882 -96.4475 4.15272 2.39756 -106.637 10.503 6.06387 -101.407 
5.20573 3.00551 -106.192 7.1526 4.12953 -104.848 9.37812 5.41443 -6.00223 
1.83629 1.06018 -2.5639 1.27529 0.736287 -2.27371 2.42238 1.39856 -2.66808 
3.15641 1.82234 -2.89444 4.05515 2.34123 -3.25461 5.25871 3.0361 -3.92443 
6.84705 3.95312 -4.93589 1.81567 1.04827 -3.57006 8.51202 4.91439 -6.13248 
2.24162 1.29419 -5.43457 2.89245 1.66995 -7.78009 3.62137 2.09079 -10.6885 
4.47032 2.58093 -14.442 4.96974 2.86926 -18.8641 5.60695 3.23715 -23.545 
5.97248 3.44819 -28.6943 6.19193 3.57489 -34.25 6.39904 3.69447 -39.8747 
11.8066 6.81651 -10.2633 6.45363 3.72599 -45.6588 13.6223 7.8648 -13.7512 
6.47377 3.73761 -51.3924 15.4839 8.93956 -17.6372 6.51097 3.75909 -57.1433 
16.9507 9.78645 -21.3153 6.53366 3.77219 -62.913 18.1517 10.4798 -24.8236 
6.41117 3.70147 -68.7329 19.0956 11.0248 -28.2096 6.23729 3.60108 -74.4392 
19.9714 11.5304 -31.7574 5.93937 3.42908 -79.7353 20.5684 11.8751 -35.1525 
5.59502 3.23027 -84.9642 21.1457 12.2084 -38.6487 5.05298 2.91732 -89.893 
21.5365 12.434 -42.2924 4.47225 2.58204 -94.2297 21.8835 12.6344 -45.9067 
3.64585 2.10492 -98.0215 22.0639 12.7385 -49.631 2.92819 1.69058 -101.092 
22.214 12.8252 -53.1688 2.267 1.30884 -103.502 22.2105 12.8232 -56.8183 
1.69871 0.980743 -105.379 22.151 12.7888 -60.6196 1.28492 0.741843 -106.563 
21.8712 12.6273 -64.2421 21.5701 12.4534 -67.8556 21.0646 12.1616 -71.472 
20.5182 11.8461 -74.9767 19.7457 11.4001 -78.3591 18.8632 10.8906 -81.7839 
1.88958 1.09095 -106.164 17.8236 10.2904 -85.2385 2.48731 1.43604 -106.15 
16.5205 9.53808 -88.7708 3.17814 1.83489 -105.89 15.0894 8.71183 -92.2318 
3.99401 2.30593 -105.58 13.2933 7.67485 -95.9838 4.92684 2.8445 -105.203 
10.6237 6.13357 -100.502 6.15254 3.55215 -104.552 7.92325 4.57447 -103.215 
9.93682 5.73699 -7.17843 2.66382 1.53795 -3.83392 3.59879 2.07775 -4.25903 
4.65958 2.6902 -4.72936 6.16405 3.5588 -5.73827 7.94862 4.58912 -7.04784 
10.442 6.02863 -9.44724 3.53456 2.04067 -6.97418 4.53896 2.62056 -9.82144 
5.41433 3.12595 -13.25 6.37895 3.68287 -17.237 7.07349 4.08386 -21.9067 
7.60075 4.38827 -26.8174 8.03939 4.64152 -31.9638 8.27523 4.77768 -37.536 
8.45649 4.88233 -42.8908 8.47458 4.89277 -48.5954 13.1513 7.59288 -14.0057 
8.49754 4.90603 -54.3338 15.0627 8.69638 -18.1026 8.52609 4.92251 -60.0466 
16.3852 9.45996 -21.692 8.44185 4.87388 -65.3716 17.5253 10.1182 -25.2957 
8.29969 4.7918 -71.0994 18.3836 10.6137 -28.7948 7.99671 4.61688 -76.462 
19.174 11.0701 -32.6309 7.67797 4.43285 -81.7331 19.7704 11.4144 -36.0339 
7.18771 4.1498 -86.7572 20.2328 11.6814 -39.9045 6.40975 3.70065 -91.5135 
20.6221 11.9061 -43.529 5.4927 3.1712 -95.6128 20.8864 12.0587 -47.4142 
4.48114 2.58718 -99.1404 21.0665 12.1627 -51.1848 3.54495 2.04667 -101.984 
21.0707 12.1651 -55.0872 2.65395 1.53225 -104.376 21.0368 12.1455 -58.7924 
20.8965 12.0646 -62.8912 20.6003 11.8935 -66.4846 20.2049 11.6652 -70.4098 
19.7015 11.3746 -73.9794 19.0714 11.0108 -77.6645 18.237 10.5291 -81.1953 
17.2239 9.94417 -84.8058 16.0114 9.24412 -88.4248 3.71063 2.14232 -104.435 
14.5801 8.41776 -92.0154 4.71295 2.72101 -103.973 12.8787 7.43546 -95.6293 
6.01266 3.47139 -103.225 10.8024 6.23672 -99.2598 7.35908 4.24874 -102.443 
2.78687 1.60899 -5.03877 2.81074 1.62277 -105.056 4.07492 2.35264 -6.06093 
5.2889 3.05353 -6.57867 6.8067 3.92983 -7.62796 8.77424 5.06578 -9.31192 
10.8418 6.25949 -11.195 5.26863 3.04183 -9.00259 6.4464 3.72181 -12.3081 
7.42908 4.28916 -16.1805 8.39326 4.84582 -20.4538 9.17573 5.29758 -25.0255 
9.72559 5.61504 -30.0169 10.0859 5.82307 -35.3443 10.2723 5.93066 -40.7016 
10.4272 6.02011 -45.9652 10.4867 6.05445 -51.5266 13.0582 7.53914 -15.0707 
10.4893 6.05596 -57.155 14.3477 8.28359 -18.3531 10.4058 6.00776 -62.4761 
15.6798 9.05271 -22.1253 10.3207 5.95865 -67.8054 16.7896 9.69345 -25.9374 
10.1087 5.83624 -73.2543 17.5882 10.1545 -29.5863 9.75612 5.63267 -78.4847 
18.3777 10.6103 -33.4902 9.25046 5.34072 -83.5099 18.8873 10.9045 -37.2489 
8.49463 4.90435 -88.3487 19.321 11.1549 -41.1579 7.47839 4.31763 -92.8897 
19.6412 11.3398 -44.9715 6.34602 3.66386 -96.9144 19.8002 11.4316 -49.0585 
5.05181 2.91665 -100.009 19.8794 11.4773 -53.124 4.27758 2.46965 -102.49 
19.9078 11.4937 -57.0456 19.7898 11.4256 -61.0971 19.6309 11.3338 -65.1226 
19.2416 11.1091 -69.0327 18.8435 10.8792 -72.9284 18.2227 10.5208 -76.7047 
17.4737 10.0884 -80.5389 16.4874 9.51894 -84.2978 15.387 8.88366 -87.9053 
13.9787 8.07054 -91.6809 5.40091 3.1182 -102.005 12.1049 6.98872 -95.5545 
6.79893 3.92534 -101.31 10.2891 5.9404 -98.8697 9.07938 5.24196 -99.3804 
5.90739 3.41062 -8.50038 7.48396 4.32084 -9.74564 9.27831 5.35681 -11.3852 
11.6458 6.72366 -14.0109 7.46389 4.30925 -11.6625 8.42729 4.86547 -15.3108 
9.5088 5.48988 -19.2581 10.4177 6.01461 -23.7158 11.161 6.4438 -28.5233 
11.7808 6.80163 -33.3787 12.0516 6.95795 -38.6034 12.2279 7.05974 -43.9234 
12.3782 7.14651 -49.1689 12.4163 7.16852 -54.3396 12.3384 7.12353 -59.598 
13.5177 7.80442 -18.6476 12.2185 7.05432 -64.8187 14.9143 8.61072 -22.7999 
12.065 6.96571 -70.0297 15.974 9.22254 -26.7189 11.6649 6.73468 -74.9712 
16.7671 9.68045 -30.58 11.2475 6.49372 -80.1031 17.4471 10.073 -34.6009 
10.5383 6.08426 -84.983 17.8352 10.2971 -38.4065 9.57826 5.52998 -89.6943 
18.2075 10.512 -42.4623 8.3409 4.81559 -94.4478 18.423 10.6365 -46.7504 
6.52803 3.76894 -98.9284 18.5464 10.7077 -50.8386 18.6046 10.7413 -54.9541 
18.528 10.6971 -59.3995 18.3666 10.6039 -63.4857 18.1497 10.4787 -67.7362 
17.794 10.2733 -71.6879 17.2433 9.95537 -75.8287 16.5271 9.54186 -79.6978 
15.7165 9.07385 -83.5169 14.7418 8.51115 -87.1848 13.4201 7.74804 -90.9878 
11.5298 6.65667 -94.9827 7.43669 4.29355 -99.1507 9.26211 5.34746 -97.4604 
9.32247 5.3823 -13.2015 11.3526 6.5544 -15.5008 10.4617 6.04003 -18.5376 
11.525 6.65395 -22.3993 12.4527 7.18952 -27.1184 13.1304 7.5808 -32.0702 
13.5652 7.83181 -37.0908 13.8466 7.9943 -42.0793 13.9843 8.07381 -47.0027 
14.0654 8.1206 -52.0419 14.0777 8.12774 -56.9775 13.9527 8.05553 -61.9126 
12.9864 7.49763 -19.7484 13.8206 7.97927 -66.9848 14.1658 8.17856 -23.8618 
13.4956 7.79167 -71.7615 15.0301 8.67757 -27.9961 13.132 7.58173 -76.5463 
15.956 9.21213 -31.6962 12.5879 7.26758 -81.5205 16.2409 9.37662 -35.426 
11.6623 6.73319 -86.0356 16.6287 9.60051 -39.3802 10.5266 6.07751 -90.7014 
16.8961 9.75492 -43.7994 9.36459 5.40662 -95.1366 17.1394 9.89537 -48.2645 
17.2133 9.93805 -52.7365 17.1578 9.90602 -57.1936 17.0678 9.85407 -61.7321 
16.8842 9.74804 -65.9726 16.5774 9.57089 -70.4218 16.1518 9.32519 -74.8171 
15.5374 8.97049 -78.9213 14.7502 8.516 -82.9161 13.7305 7.92725 -86.754 
13.0165 7.51504 -90.0121 11.2655 6.50408 -93.6916 11.0729 6.39288 -17.146 
12.3435 7.12646 -21.1576 13.3844 7.72747 -25.4958 14.4411 8.33754 -30.6918 
15.0112 8.66665 -35.9051 15.2694 8.81572 -40.6452 15.495 8.94602 -45.199 
15.6341 9.02628 -50.0711 15.7221 9.07709 -54.7649 15.6994 9.06401 -59.4122 
15.5552 8.98076 -64.0553 15.2599 8.81028 -68.8126 14.9023 8.60378 -73.4605 
14.5281 8.38778 -78.1116 13.6906 7.90423 -82.3271 12.7382 7.35437 -86.6058 
9.3831 5.41731 -15.0591 11.6005 6.6975 -90.962 8.46806 4.88901 -101.792 
4.51781 11.0771 -5.81448 9.11158 13.5968 -13.4494 10.7317 15.6703 -17.9621 
11.7767 16.9976 -21.0379 12.6128 18.1217 -23.9514 13.3001 19.1838 -26.8548 
14.0405 20.1307 -29.7473 14.5681 20.9865 -32.5387 15.084 21.6935 -35.4383 
15.5059 22.0976 -38.3958 15.8953 22.6476 -41.4353 16.1989 23.1806 -44.6814 
16.5102 23.5401 -48.4329 16.1966 23.8935 -52.2161 15.8484 24.1364 -55.2599 
15.4968 24.3392 -58.8274 15.1702 24.21 -62.3963 14.9095 23.7844 -65.8511 
14.6119 23.4152 -68.7557 14.2544 22.8532 -71.6463 13.937 22.0889 -74.4657 
13.5998 21.2828 -77.2571 13.0666 20.38 -80.0281 12.5329 19.3819 -82.6651 
11.5022 17.6994 -87.1331 12.2928 18.3653 -84.9125 10.669 16.5294 -89.8579 
9.56026 14.9214 -93.3404 8.43623 13.2852 -96.8929 8.75049 11.8247 -10.4607 
17.3179 23.1004 -50.5554 3.21067 12.2821 -101.913 4.00449 14.9801 -96.9876 
4.03687 16.7878 -93.9869 4.45269 18.4902 -90.9699 4.86701 20.1085 -87.8194 
5.23447 21.5081 -84.8257 5.59696 22.8612 -81.682 6.63579 23.8705 -78.4363 
7.08681 24.8254 -75.3556 7.47908 25.7022 -72.3398 7.71233 26.3263 -69.2371 
7.99445 26.8628 -66.1531 8.20606 27.2168 -63.0101 8.19469 27.606 -59.5159 
8.54033 27.5932 -56.1922 5.08696 24.0252 -79.1138 8.64003 27.6435 -52.9899 
5.52169 24.8375 -76.487 8.15938 27.647 -49.6063 5.72606 25.7502 -73.6369 
8.23557 27.1904 -46.2146 6.0913 26.4867 -70.5515 8.22977 26.7501 -43.2361 
6.18922 27.0455 -67.5855 8.24289 26.3063 -40.0905 6.5406 27.4498 -64.6204 
8.10433 25.557 -37.0884 6.66446 27.7433 -61.6952 7.86133 24.7728 -34.0546 
6.49119 28.064 -59.1478 7.54352 23.9051 -31.097 6.97703 28.0495 -56.8951 
7.16697 22.8489 -28.2803 7.14108 28.0651 -54.2182 6.79063 21.674 -25.396 
7.12377 27.9945 -51.7267 6.33096 20.466 -22.5487 5.92494 19.0479 -19.5948 
5.46462 17.4558 -16.5848 4.88816 15.5947 -13.0496 4.3042 13.3966 -9.26606 
3.48526 12.046 -6.89452 2.74921 13.0803 -101.069 2.99182 14.8094 -97.6246 
1.19675 13.6294 -100.346 0.80711 15.0982 -97.5865 1.50838 18.4712 -91.8133 
1.60503 20.1636 -88.6905 1.69641 21.6412 -85.7065 1.79577 23.0078 -82.7696 
1.91355 24.226 -79.7432 2.02026 25.3205 -76.7608 2.13017 26.284 -73.7719 
2.25122 27.1056 -70.6707 2.33551 27.6731 -67.4893 2.40298 28.2031 -64.0594 
3.30348 28.4431 -60.625 3.62878 28.6632 -57.4303 1.5247 28.6083 -61.0782 
1.78709 28.7948 -57.9391 2.18029 28.8528 -53.7336 1.9783 28.7325 -50.7263 
1.88588 28.5923 -47.8396 1.67737 28.2803 -44.5977 1.6053 27.6952 -41.3429 
1.52518 27.0411 -38.1222 1.45984 26.2214 -34.9386 1.32564 25.2222 -31.8534 
1.23155 24.1097 -28.8469 1.22796 22.9196 -25.8516 1.14779 21.4737 -22.792 
1.11024 19.9536 -19.7743 1.04741 18.128 -16.5259 0.939141 15.924 -12.8184 
1.17546 13.7545 -9.22288 0.501762 14.4022 -10.1825 1.58581 16.6277 -94.917 
1.86641 14.8367 -97.968 13.6554 11.5572 -15.9789 11.0545 9.08878 -9.83982 
15.2844 12.9484 -19.8116 16.5228 14.0334 -23.1769 17.4731 15.0575 -26.0867 
18.3577 15.9203 -29.2567 19.1604 17.0094 -32.7462 20.054 17.5943 -36.5016 
20.6194 18.1147 -39.847 21.1192 18.4343 -42.9576 21.5157 18.5773 -46.0628 
21.8251 18.6111 -49.2914 22.132 18.635 -52.5137 22.2425 18.5563 -55.9385 
22.0729 18.4446 -59.2223 21.8984 18.2711 -62.5925 21.8741 17.8598 -65.289 
21.1069 17.9144 -68.1739 20.3756 17.5562 -71.7205 19.7335 16.9055 -75.0101 
18.9548 16.2059 -78.0946 17.9815 15.408 -81.2635 16.9796 14.5729 -84.3675 
15.9004 13.6281 -87.359 14.4685 12.5369 -90.711 12.8531 11.1766 -94.4017 
10.5443 9.48844 -99.4752 20.1058 18.6244 -69.6276 9.66161 8.2984 -101.827 
5.80971 13.1443 -9.75681 8.16233 16.9021 -17.6106 6.72317 13.0529 -10.2894 
6.29695 11.6195 -7.54557 8.8465 18.3627 -20.4238 9.49291 19.5987 -23.2868 
10.0366 20.7189 -26.1643 10.6201 21.7761 -28.9851 5.73688 11.8372 -7.6939 
11.0799 22.7206 -31.7805 11.4618 23.5276 -34.6829 11.8151 24.233 -37.6588 
12.1705 24.8281 -40.7172 12.1663 25.3065 -43.9024 12.1131 25.8384 -47.2897 
12.1438 26.2051 -50.7061 12.0538 26.2625 -54.0994 11.9423 26.2796 -57.3466 
11.6274 26.0568 -62.5532 11.3643 25.6744 -65.7796 11.0596 25.2372 -69.0335 
10.7643 24.5398 -72.2637 10.3614 23.7626 -75.1745 9.99412 22.8523 -78.1701 
9.5134 21.7928 -81.0763 8.90454 20.5545 -84.2761 9.14187 19.2128 -86.6974 
8.40789 18.0173 -89.3485 11.4821 26.406 -59.9568 7.68078 16.4408 -92.5556 
6.69151 14.5499 -96.2861 5.95279 12.5812 -100.033 5.64317 11.3042 -102.223 
5.61771 13.2429 -99.1219 7.77102 19.3562 -87.5178 5.48552 14.4544 -97.2156 
6.96292 17.8147 -90.7572 6.29923 16.1003 -94.0677 7.73765 15.4483 -14.9455 
4.9839 28.2285 -47.8427 5.03832 27.8232 -44.2392 4.8458 27.2195 -40.6256 
4.69671 26.4474 -37.3243 4.47651 25.6634 -34.2452 4.27066 24.6738 -31.2826 
4.07364 23.5967 -28.2736 3.90877 22.3966 -25.2685 3.65412 20.9863 -22.3752 
3.446 19.4577 -19.3822 3.13327 17.7967 -16.3526 2.87673 16.0231 -13.3291 
4.97143 28.4243 -51.126 8.9747 7.33204 -4.47201 9.03405 7.79545 -5.30913 
4.73921 9.8205 -3.82296 6.15527 9.76185 -4.20224 11.9563 12.9907 -15.7004 
9.51301 9.75282 -8.57262 13.4922 14.6867 -19.7825 14.6824 16.0214 -23.2052 
15.9823 17.6117 -27.8322 16.6177 18.4032 -30.4594 17.5715 19.6023 -34.9994 
18.1277 20.088 -37.9734 18.6002 20.4634 -40.9565 19.056 20.8104 -43.9483 
19.421 21.0725 -47.2706 19.719 21.0821 -50.3078 19.9468 21.0938 -53.4091 
19.9848 20.9768 -56.528 19.8303 20.8053 -59.7781 15.6169 16.6836 -25.5587 
16.9461 19.2178 -32.7136 19.6638 20.5703 -63.0009 19.4384 20.3871 -65.9052 
2.24604 13 -8.38943 2.94728 13.2143 -8.90701 9.41737 6.71385 -4.10356 
11.1323 12.7071 -94.8869 9.18213 9.57755 -101.165 8.87167 11.5493 -99.2721 
12.664 14.3317 -90.8201 13.7836 15.5745 -87.549 14.6018 16.6249 -84.8523 
15.4613 17.6624 -81.827 16.0995 18.616 -78.9897 16.7362 19.4086 -76.1388 
17.216 20.1711 -73.1692 17.3973 21.2137 -69.7519 17.6398 21.8884 -66.2912 
17.79 22.1298 -63.5325 7.85868 9.53636 -102.92 5.59683 3.93346 -108.662 
5.67694 3.65792 -108.654 6.34287 4.72811 -108.634 5.45408 4.52927 -108.634 
4.88388 3.24744 -108.697 5.54749 4.97255 -108.643 4.12102 2.78958 -108.721 
5.20422 5.01627 -108.674 3.46826 2.42027 -108.733 5.18798 5.34352 -108.645 
2.8772 2.06293 -108.741 4.8541 5.34093 -108.65 2.38002 1.76002 -108.751 
5.00494 5.97463 -108.662 1.90593 1.4403 -108.763 4.44118 5.76277 -108.661 
1.49388 1.2107 -108.764 4.33562 6.10687 -108.671 1.14581 0.997974 -108.765 
4.06618 6.15288 -108.67 0.8248 0.798783 -108.767 3.76973 6.23904 -108.636 
0.516252 0.609564 -108.769 0.252089 0.44496 -108.776 3.13529 6.25666 -108.663 
3.04385 6.64433 -108.666 2.63164 6.25483 -108.687 0.253471 0.752381 -108.776 
2.45565 6.68046 -108.66 0.277567 1.11435 -108.776 2.35468 7.12127 -108.658 
0.291562 1.49853 -108.769 2.04236 6.85451 -108.622 0.311258 1.90325 -108.763 
0.31759 2.39776 -108.759 0.313452 2.93272 -108.755 1.43098 7.0293 -108.68 
0.338023 3.50955 -108.753 1.09133 6.93306 -108.664 0.367582 4.1724 -108.747 
0.74505 6.8093 -108.665 0.353229 5.00801 -108.725 0.489816 7.24491 -108.679 
4.84945 3.6716 -108.686 4.56793 4.02232 -108.707 3.57391 2.87801 -108.733 
2.97545 2.52375 -108.742 4.19781 4.25934 -108.696 2.47304 2.21939 -108.745 
3.75921 4.57201 -108.699 1.99723 1.88015 -108.752 1.54943 1.60043 -108.76 
3.52808 4.93599 -108.69 1.18136 1.36535 -108.764 0.861978 1.15251 -108.767 
3.18766 5.04003 -108.686 0.541965 0.94927 -108.77 3.09022 5.58156 -108.658 
2.6419 5.7387 -108.689 2.15698 5.5039 -108.713 1.94007 5.74724 -108.693 
0.582971 1.31669 -108.775 0.606711 1.71294 -108.767 0.612721 2.12419 -108.766 
1.57784 6.06245 -108.686 0.622862 2.6634 -108.762 0.662528 3.22364 -108.757 
1.1116 5.70781 -108.701 0.693037 3.8714 -108.752 0.721627 5.67511 -108.689 
0.791826 4.76231 -108.74 3.08881 3.05763 -108.742 2.56746 2.70148 -108.741 
2.08624 2.37126 -108.746 2.97191 4.14965 -108.727 1.6134 2.02212 -108.754 
1.22206 1.7414 -108.759 0.897926 1.53116 -108.765 2.53174 4.52878 -108.723 
2.01329 4.57923 -108.743 1.7252 4.92353 -108.728 1.35846 5.09719 -108.734 
0.908883 1.93588 -108.766 0.944497 2.40549 -108.765 0.994682 2.96186 -108.756 
1.04339 3.53594 -108.753 1.1955 4.38389 -108.74 2.73269 3.35275 -108.739 
2.16874 2.87983 -108.743 1.71181 2.52985 -108.748 2.31256 3.56566 -108.746 
1.28278 2.2133 -108.756 1.57831 4.11844 -108.735 1.35245 2.76279 -108.75 
1.46644 3.3908 -108.741 1.94009 3.8108 -108.744 1.7841 3.09571 -108.752 
3.29896 3.70764 -108.738 0.370534 5.75583 -108.705 3.6372 3.39267 -108.745 
4.243 3.29746 -108.726 2.06262 7.98673 -108.629 3.76941 6.79207 -108.663 
6.92584 10.396 -102.085 0.461995 11.821 -103.258 7.82718 5.75054 -105.28 
7.73412 6.02852 -105.48 8.09254 5.57664 -104.971 9.83241 7.1378 -102.015 
7.18149 6.20372 -106.046 9.26228 7.67623 -102.144 10.4386 6.84203 -101.606 
6.47095 5.18504 -106.774 7.38951 7.20468 -104.565 10.1418 9.31616 -99.6799 
10.4963 8.16743 -100.34 6.67536 4.78254 -106.191 5.58893 4.8243 -106.702 
11.0131 11.0732 -96.9159 12.8363 10.47 -95.3401 12.3383 8.40505 -97.9917 
5.04565 3.80655 -107.167 9.69504 6.33216 -102.614 4.99262 5.00816 -106.833 
4.24028 3.84242 -107.506 5.73248 6.29076 -106.119 6.63634 7.49784 -105.136 
9.10014 10.1382 -100.019 12.572 12.7143 -92.9651 10.4301 12.6936 -95.4677 
14.69 12.1022 -90.8267 15.0349 10.8694 -91.7926 3.77728 2.94804 -107.856 
7.75553 5.36588 -104.188 3.42951 2.33133 -108.044 11.1874 7.70178 -99.2742 
3.42228 3.33451 -107.748 3.76799 4.16543 -107.484 4.99643 6.18444 -106.234 
5.70376 7.08301 -105.705 14.3725 13.5696 -89.3304 12.2098 14.5439 -90.9336 
9.15303 12.6707 -96.9191 7.31782 10.3785 -101.28 16.1513 11.3641 -89.3739 
15.5163 12.4472 -88.7701 14.2284 9.52218 -94.3638 3.24636 2.67447 -107.881 
5.28544 3.66803 -106.218 8.19958 5.69814 -102.818 3.10494 2.08221 -107.941 
13.6295 9.45971 -94.5833 11.075 7.67614 -98.499 3.01355 3.60232 -107.717 
3.49509 4.86281 -107.105 4.21506 6.69954 -106.177 4.63926 6.72622 -106.671 
6.38916 8.54477 -104.735 14.7662 15.3019 -86.194 13.2009 15.7714 -87.7572 
7.65705 12.49 -98.4932 17.3947 12.0572 -86.2973 16.2739 14.8334 -84.3521 
17.1638 13.6521 -84.4581 3.9314 3.01077 -106.786 5.89935 4.26337 -104.854 
8.48554 6.11789 -101.611 2.52309 1.76732 -108.02 15.2328 10.3341 -91.0939 
13.1347 9.03923 -94.5663 10.7756 7.58634 -97.8438 2.27869 2.89876 -107.791 
2.52507 3.78689 -107.755 3.15328 5.43486 -106.787 3.57925 7.15102 -106.422 
15.6735 16.306 -83.0304 14.0742 16.7793 -84.7988 11.0798 17.9287 -86.6656 
7.64551 16.1429 -93.0091 5.95403 11.0612 -101.651 5.24818 8.61684 -104.72 
18.7648 12.8864 -82.5407 18.2436 14.5893 -81.0403 17.1651 15.7868 -81.1121 
2.1327 2.0739 -107.966 3.26279 2.3874 -107.164 4.64282 3.36901 -105.597 
7.02528 5.12692 -102.736 2.02813 1.45978 -108.074 16.592 11.2196 -87.6603 
14.5025 10.1941 -90.9961 12.534 8.81898 -94.3324 9.81976 7.45325 -97.6244 
1.63161 2.36719 -108.017 1.93938 3.3025 -107.797 2.0856 4.18015 -107.632 
2.57931 5.78288 -106.917 4.44121 8.1097 -106.005 3.31708 7.72361 -106.803 
5.38382 7.9507 -105.824 16.338 17.2963 -79.9546 14.7518 17.7458 -81.8127 
9.62794 18.9613 -86.0536 7.32722 17.6724 -90.6388 5.17468 12.3842 -100.346 
8.04464 19.152 -87.33 20.1663 13.5145 -78.5453 19.2202 15.1305 -77.6212 
17.901 16.513 -77.8597 1.65882 1.64752 -108.084 2.64282 2.01282 -107.308 
3.8162 2.86206 -105.921 5.69001 4.30209 -103.639 1.429 1.10864 -108.269 
16.0703 10.984 -87.403 17.7663 12.0111 -84.274 14.233 9.8417 -90.2795 
6.75748 5.15625 -101.402 9.23532 7.02865 -97.0774 1.33055 2.84922 -107.646 
1.25398 1.88139 -108.176 1.57793 3.70409 -107.738 1.66106 4.4286 -107.712 
1.8005 5.44435 -107.442 3.44742 8.89074 -106.057 13.6937 18.9156 -81.0168 
9.86887 20.646 -82.0549 8.07754 20.5922 -84.3256 4.10575 12.1085 -101.135 
4.37177 9.09012 -105.316 19.9828 15.7659 -74.309 18.6039 17.253 -74.593 
1.24536 1.37836 -108.148 2.07248 1.63614 -107.457 2.96805 2.3084 -106.271 
4.49303 3.44965 -104.331 1.08287 0.930408 -108.24 17.1802 11.7913 -83.8542 
15.4754 10.6839 -86.9627 18.7442 12.6935 -80.9696 12.9935 9.38421 -91.3021 
11.4462 7.9639 -93.391 7.22142 5.63512 -99.3353 8.93328 7.28145 -95.2286 
5.15841 4.08634 -102.493 0.814553 2.28833 -108.084 1.11875 3.39554 -107.679 
1.12481 3.91529 -107.849 1.25005 4.89393 -107.535 1.46535 6.03938 -107.304 
2.82442 8.43719 -106.3 2.21566 7.56157 -106.625 17.4991 18.7386 -73.4922 
14.1651 19.7668 -78.1922 10.7473 21.489 -78.9896 8.49747 21.6058 -81.1367 
6.47385 21.5799 -82.9256 5.06694 18.0614 -91.3183 3.49434 13.4957 -99.5468 
3.28025 10.9992 -103.178 21.3719 14.5753 -72.5336 19.1372 17.7702 -70.6536 
20.5714 16.534 -70.6151 0.801015 1.31416 -108.161 2.1962 1.85182 -106.591 
1.38368 1.36429 -107.612 3.47049 2.77362 -104.936 0.780125 0.938758 -107.979 
18.1568 12.3443 -80.3905 16.7048 11.4395 -83.3449 14.8926 10.4946 -86.2521 
11.0297 7.76211 -92.4882 5.77709 4.79905 -100.149 6.54583 5.92845 -96.8395 
3.67428 3.3077 -103.282 0.353065 1.94703 -108.211 0.380858 1.54471 -108.155 
0.763101 5.0629 -107.751 0.846168 6.62851 -107.086 1.71843 7.36827 -107.099 
1.30883 7.81974 -106.619 16.1185 20.2481 -72.6557 18.3508 19.2604 -69.5255 
14.5264 20.6429 -75.2496 10.8578 22.2924 -76.1318 7.41475 22.6607 -79.66 
2.48673 11.3843 -102.819 1.36609 1.31303 -106.966 0.493169 0.520616 -108.256 
17.0973 12.426 -79.9893 15.4854 11.2383 -82.7464 20.7092 13.458 -73.9667 
4.80179 4.24257 -100.22 8.04199 7.12957 -92.0049 10.2952 8.2035 -88.1466 
0.303479 3.00504 -108.119 0.263828 2.31301 -108.192 0.326752 3.5829 -108.171 
0.363793 4.58393 -108.005 0.287526 5.57568 -107.57 0.704451 8.18228 -106.3 
1.72656 9.47857 -105.681 1.30494 9.97189 -104.849 14.8831 21.3346 -72.2757 
16.6056 20.9029 -68.4685 17.976 20.3597 -66.6928 11.5264 23.1467 -72.7744 
9.61554 23.5793 -74.2259 6.22559 23.682 -77.8712 2.31755 21.2738 -85.7773 
2.44147 22.7232 -82.4141 2.48314 14.7603 -97.9221 22.6485 15.4401 -65.1514 
21.4508 16.4419 -64.7358 0.229204 0.743629 -108.223 1.29359 1.65477 -106.107 
18.0424 12.8431 -75.9519 19.5112 13.3408 -73.4377 16.5232 11.6067 -78.8951 
14.8119 10.6331 -81.9089 20.8639 14.0505 -70.9462 12.2171 9.66871 -84.8012 
5.21977 4.75701 -96.6337 7.90708 7.80414 -88.4343 5.968 5.85841 -91.9101 
2.05406 2.83712 -102.211 0.779004 10.1918 -104.96 16.9093 21.4126 -65.3317 
18.7283 19.9279 -64.937 9.98765 24.0001 -71.5195 8.29461 24.3613 -73.3967 
6.61684 24.1802 -75.7341 4.93915 24.6196 -76.0996 3.1545 24.4373 -77.7862 
1.0854 15.832 -96.5286 1.2764 12.3116 -101.387 22.6414 15.8313 -62.0795 
0.757116 0.999538 -106.707 0.341313 0.541204 -107.674 17.2052 12.0308 -75.0264 
18.6772 12.8488 -72.3885 20.0337 13.6354 -69.8668 21.3248 14.3587 -67.4632 
13.864 10.226 -79.8083 2.99441 3.22678 -99.488 3.68363 4.01663 -95.9864 
4.31087 4.72725 -92.0223 1.32218 1.72872 -103.59 1.75079 2.2167 -101.257 
0.391717 2.65615 -107.436 0.348697 1.89773 -107.622 0.591627 6.35423 -106.396 
0.628691 8.52533 -105.185 17.3187 21.3318 -62.3583 15.701 22.4324 -63.2883 
13.7928 23.4241 -64.6025 12.0037 23.873 -65.6523 10.2427 24.6187 -68.03 
5.20931 25.3645 -72.8632 3.50558 25.2862 -74.5079 22.1377 16.8457 -59.0217 
0.488521 1.0942 -104.673 17.6622 12.3599 -71.189 19.0189 13.4242 -68.8749 
20.3963 13.8976 -66.2119 21.9189 14.3324 -64.1902 14.212 10.4577 -75.3109 
2.19836 2.75117 -98.2251 2.68471 3.36898 -94.5201 4.40159 5.77711 -87.0607 
8.58276 7.74341 -81.3945 12.8253 9.78815 -73.8415 3.10235 4.08186 -90.4465 
0.639984 1.43585 -102.683 0.803756 1.82273 -100.101 0.877083 4.84403 -105.942 
0.746213 6.27825 -105.233 0.499798 3.70173 -106.237 0.513348 2.85736 -106.543 
0.511619 2.24164 -106.682 0.898091 8.08985 -104.064 0.881186 9.6918 -103.24 
0.898399 12.3385 -100.959 17.0891 21.7674 -59.2073 12.255 24.5416 -62.3347 
8.46089 25.2955 -67.4759 6.99666 25.8935 -67.9891 5.35504 25.9811 -69.6902 
1.86896 23.3986 -80.1437 1.19722 16.1198 -95.7664 1.61458 24.5543 -76.9171 
23.2719 15.2257 -59.0752 22.1991 16.9952 -55.7018 19.0405 20.5052 -54.9979 
0.525476 1.00533 -105.758 17.8409 12.659 -66.7595 15.8574 12.4043 -68.6639 
19.3145 13.3563 -65.0646 20.6731 14.0769 -62.6163 21.7303 15.2592 -60.5986 
14.376 11.035 -70.8852 1.01946 2.2968 -96.8143 1.29023 2.74895 -92.8093 
5.38005 5.46554 -82.0586 3.31075 4.38179 -85.94 7.39266 6.77719 -78.7465 
9.43772 7.92193 -75.4705 13.1844 9.98001 -69.1064 1.50507 3.04447 -88.1189 
0.859111 5.48497 -104.579 0.89676 7.43235 -103.472 0.94759 10.0685 -101.386 
0.757352 4.52652 -104.737 0.657896 3.31801 -105.286 0.670843 2.42676 -105.52 
0.57844 1.60274 -105.868 1.15213 11.944 -100.123 16.5878 22.2579 -55.807 
12.4287 24.6635 -59.0119 10.4104 25.443 -61.6382 7.37367 26.3401 -64.6997 
5.58235 26.4964 -66.5523 3.82239 26.412 -68.0812 1.51191 20.504 -86.4132 
1.44572 18.8978 -89.9107 2.32715 21.723 -82.9243 1.30636 15.4737 -95.9318 
1.66738 25.4166 -73.5721 1.68768 23.9111 -76.2113 23.0934 15.7707 -54.2921 
21.8416 16.9341 -51.7764 20.9279 18.4167 -50.8 19.8441 19.6108 -50.12 
16.7566 12.0011 -65.7416 19.6105 13.5167 -61.0051 20.8473 14.2125 -58.7642 
21.9805 14.7573 -56.8433 15.0632 10.8134 -65.9192 2.30021 3.78115 -80.1926 
5.48735 5.85992 -76.802 7.7391 6.98869 -73.51 11.4739 9.49993 -66.8537 
13.6999 9.90058 -63.8656 0.855039 6.43463 -102.582 1.35714 14.3201 -96.453 
0.939891 4.8816 -103.305 0.732094 3.82874 -103.388 14.7306 23.4797 -53.632 
12.5061 24.4662 -55.2473 10.5405 25.5894 -57.9179 9.13239 26.2251 -59.9554 
7.35539 26.8423 -61.7684 1.54071 21.0013 -82.771 1.72609 24.6618 -72.6294 
1.84881 23.0963 -75.3212 22.8759 15.8833 -50.9308 21.8491 17.0949 -48.8951 
20.6188 18.3875 -47.5667 18.385 21.0475 -49.7334 19.4429 19.5293 -46.2487 
16.5645 12.1463 -62.2023 19.4032 13.7743 -56.8367 20.9073 14.1982 -55.0811 
21.9905 14.7282 -53.2641 2.36335 3.97271 -74.6504 4.8776 5.91639 -71.7654 
7.8642 7.19721 -67.9875 9.85781 8.29118 -64.9559 1.25093 9.16261 -99.204 
1.10843 7.03853 -100.748 1.42901 11.9182 -96.3958 1.46254 13.7858 -95.3435 
0.982006 2.6732 -102.331 12.9043 24.391 -51.2556 14.9127 23.1937 -50.0094 
10.8797 25.4872 -52.1736 8.73692 26.4435 -54.7921 7.94183 26.664 -57.9939 
16.984 21.6544 -47.5296 2.15034 27.3345 -62.6017 1.7452 26.6503 -66.8046 
1.76935 25.2642 -69.1243 1.68924 20.4824 -81.8863 2.54601 21.2195 -78.4161 
1.77394 23.7701 -71.5585 1.80044 22.1722 -74.2699 22.6823 15.5428 -47.437 
21.544 16.8304 -45.3916 20.201 18.3793 -44.1498 18.2264 20.4504 -45.1552 
19.0266 19.3588 -42.9049 1.18162 3.3656 -99.689 18.3934 12.8469 -55.105 
17.0251 12.1898 -57.1411 19.6511 13.3169 -53.1428 20.8726 14.1294 -51.3512 
21.8759 14.6915 -49.7473 2.36335 4.07983 -68.8987 5.97834 6.10758 -65.5915 
7.97001 7.26209 -62.5628 1.49417 4.15245 -96.3457 1.76798 4.92535 -92.2746 
1.76747 11.7216 -94.9314 2.04474 14.7065 -92.3885 1.38108 4.93805 -100.455 
12.9629 24.1052 -47.2388 14.8158 22.807 -45.9236 8.59615 26.4758 -50.2126 
6.79707 27.1227 -53.2249 16.7185 21.3348 -44.2018 2.35638 25.8132 -65.5617 
1.8455 24.3139 -67.968 1.51391 18.4471 -85.2015 1.99803 19.4082 -81.3308 
1.84324 22.8064 -70.424 22.5115 14.9268 -44.4124 19.7758 18.0139 -40.9571 
17.8239 20.1463 -42.0166 18.3636 18.6762 -38.8096 1.61227 5.35382 -97.414 
18.4043 12.898 -50.9981 17.0335 12.2377 -52.86 19.6313 13.5058 -49.2623 
20.7087 14.0558 -47.6582 21.666 14.559 -46.2285 15.1068 11.2078 -52.5247 
1.50026 5.37581 -88.3903 2.09198 5.93833 -82.4644 3.93777 4.85074 -62.8783 
5.58604 6.47684 -60.4347 10.1327 8.56391 -53.6577 13.3273 10.3766 -48.9258 
2.2087 6.23681 -77.0515 1.96453 6.80892 -93.1631 2.04308 7.17642 -89.2515 
1.81473 13.6776 -90.7349 2.39597 16.4606 -88.335 13.0019 23.6145 -43.7585 
9.01477 25.7481 -46.2114 14.681 22.4106 -42.337 6.7815 26.9221 -50.1607 
16.2485 21.0229 -40.5962 2.22481 26.1293 -62.2259 1.85683 24.6896 -64.0223 
1.87073 23.2312 -66.6076 1.965 21.6849 -68.9673 2.04434 19.9072 -71.514 
20.5319 16.5115 -38.9028 19.0666 17.4757 -37.099 17.3571 19.7832 -39.0399 
19.4718 13.3676 -45.3101 20.4278 13.895 -43.9374 21.3193 14.3299 -42.6649 
14.787 11.521 -47.5237 2.59638 7.71701 -84.6553 2.1059 8.34479 -79.2095 
1.71169 3.90386 -60.2505 1.98948 6.82621 -71.2425 3.88542 4.95175 -57.1717 
5.77372 6.51187 -54.8684 7.95477 8.0159 -51.9993 9.97078 8.39958 -48.907 
13.7032 9.94017 -44.1838 2.85591 8.68053 -74.0834 1.78916 9.49931 -86.7157 
1.84419 13.637 -87.753 12.8999 23.1808 -40.3642 10.7885 24.3963 -41.646 
9.12972 25.3747 -43.1506 7.22461 26.1893 -44.0187 14.4917 21.9844 -39.0053 
5.09883 27.3391 -49.7677 5.20696 26.972 -45.8258 1.73556 27.6045 -53.085 
2.24041 26.233 -57.9022 1.86648 25.0097 -60.1939 1.85522 23.5257 -62.6191 
1.90995 22.0128 -64.9869 1.93136 17.4884 -78.4055 2.03238 18.1169 -74.0018 
2.06161 20.3625 -67.3179 2.13866 18.5742 -69.6449 21.4236 14.7029 -37.4277 
19.9392 15.8905 -35.3147 18.3857 16.719 -33.1585 17.3898 17.9942 -33.1274 
18.0668 12.682 -42.9196 16.7671 12.0988 -44.4607 19.1361 12.893 -41.466 
14.8434 11.108 -43.0626 2.06533 10.2478 -81.0869 2.17312 10.7632 -75.9234 
2.74253 6.80923 -66.2067 2.58833 3.72568 -55.1066 3.94399 5.67803 -51.4478 
5.77328 6.17012 -48.1594 7.98433 7.26845 -45.8759 9.82386 8.32078 -43.6719 
11.6061 9.75782 -41.5666 2.38595 11.0232 -71.0133 1.927 11.0338 -87.6849 
2.05511 11.9219 -83.1545 12.4063 22.6879 -37.1777 10.6394 23.8848 -38.3104 
8.9831 24.8266 -39.9107 7.34467 25.7485 -41.0074 5.79703 26.3943 -42.6717 
14.1295 21.4424 -36.0045 4.11275 26.6452 -42.2075 2.12134 26.4931 -54.3398 
1.87336 25.095 -56.6137 1.94456 22.2559 -60.9323 2.40965 20.6282 -63.3105 
1.99433 16.1918 -76.6823 2.14141 16.7656 -71.9573 2.11849 19.0205 -65.0275 
2.2077 17.2126 -66.6747 20.6631 14.5504 -34.2226 19.2416 15.2801 -31.6337 
17.6159 16.4998 -29.8694 16.0577 18.5923 -32.9354 16.6649 17.9635 -30.8816 
17.7009 12.4392 -38.9962 18.6495 12.9332 -37.7048 19.8227 13.6245 -38.1715 
20.4013 13.7162 -35.7783 2.20564 12.633 -77.9242 2.45287 12.9798 -73.1692 
2.1753 6.66669 -60.3182 3.0117 8.58137 -62.5054 1.92718 4.0819 -49.2009 
3.71392 4.83489 -45.5028 5.92602 6.10499 -42.8929 7.86709 7.14005 -40.4803 
9.67434 8.15521 -38.2872 11.3999 9.05024 -36.4345 12.3125 10.1266 -34.2304 
2.93714 13.3553 -68.5893 2.58217 14.0809 -79.69 12.3265 22.0089 -34.0706 
10.4012 23.2421 -35.079 8.64618 24.2097 -36.4805 7.21882 24.98 -37.8275 
5.73059 25.7942 -39.2171 13.7299 20.8582 -32.8541 3.47616 25.5679 -38.1413 
15.1139 19.4981 -31.6698 1.25576 27.5252 -49.2661 1.68128 26.4556 -50.9032 
1.9012 25.1201 -52.6656 2.05351 22.3115 -56.9637 2.11532 20.7647 -59.2633 
2.08161 14.7379 -74.6279 2.42663 15.3478 -69.6407 3.061 15.639 -64.3075 
20.3626 13.5935 -31.9252 19.6275 13.6176 -29.3698 18.5999 14.7188 -28.8817 
16.8889 15.2721 -26.2499 15.2376 18.2012 -28.8722 17.3306 12.0879 -35.206 
18.2423 12.5033 -34.209 14.1511 10.5817 -34.1091 2.15567 6.70349 -54.7725 
2.80591 8.8192 -57.1759 2.67528 11.3234 -59.8248 1.68334 3.67668 -42.5625 
2.21803 13.5925 -62.1525 3.81611 4.88582 -39.8232 5.76507 6.15193 -37.2987 
7.69642 7.00904 -35.0379 9.51918 7.94644 -33.0171 10.4743 8.9071 -31.3542 
11.9087 9.76267 -29.4369 11.9745 21.2783 -31.0883 10.0223 22.4653 -32.119 
5.62311 25.0554 -35.7851 13.2922 19.979 -29.7939 1.87013 25.8297 -36.7914 
2.0966 26.1026 -46.7907 1.92541 24.958 -48.838 1.95594 23.7613 -50.6525 
2.31237 22.3636 -52.2842 2.10571 20.8006 -54.9592 2.87551 18.3776 -54.9569 
16.0051 14.332 -23.0863 13.6713 18.468 -26.9313 15.8069 11.3169 -32.4733 
18.9974 12.8112 -29.0539 14.1528 10.4288 -30.2055 2.22967 6.78992 -48.3921 
2.11292 9.09022 -51.4926 2.31425 11.3756 -54.3026 2.18357 13.537 -56.6346 
1.88612 4.00914 -37.5436 3.77744 5.43838 -34.3428 5.23688 5.69512 -31.1406 
7.00425 6.30169 -29.4823 8.91988 7.334 -27.7082 10.2707 8.23673 -26.3954 
11.526 8.89289 -25.2233 11.3058 20.1797 -27.7357 9.64604 21.4065 -28.81 
8.17017 22.5596 -30.3327 1.89636 27.398 -43.1313 2.06504 25.0668 -33.2952 
3.80532 24.4344 -31.8965 1.9565 26.5702 -43.7682 1.80743 24.6932 -45.1058 
1.95453 23.5377 -46.6677 2.30047 22.0251 -48.7492 2.3066 20.4529 -51.1382 
2.41959 15.664 -54.3508 2.15889 17.2801 -50.9816 14.8598 15.4336 -22.9815 
14.9803 13.1685 -19.9003 13.6505 16.0914 -22.4068 11.9522 18.6574 -25.071 
15.6824 11.125 -26.9258 14.9748 10.6156 -28.3871 17.4482 12.2109 -26.6164 
18.4923 12.3795 -26.5929 13.2124 9.71375 -25.7152 1.76117 6.43052 -42.3738 
2.98819 8.78849 -45.6778 3.0266 11.5227 -49.3028 2.44712 13.6958 -50.7266 
1.58672 3.46934 -31.0959 3.58426 4.54838 -28.6143 5.00203 5.43189 -26.1656 
6.96939 6.23575 -24.5554 8.384 6.99509 -23.2436 9.60737 7.62249 -21.9289 
10.6539 8.21262 -20.932 9.09804 20.6739 -25.9051 7.72839 21.7332 -27.2576 
6.52904 22.7926 -28.7202 1.82807 25.1012 -41.6323 1.93303 23.1642 -42.7315 
1.98062 21.9383 -44.3264 2.07879 20.5461 -46.2331 2.06803 19.0066 -48.4228 
2.15267 15.4536 -48.9875 2.09036 17.2639 -46.3635 13.719 14.3114 -19.6873 
10.8105 17.4614 -21.2883 11.651 14.6453 -17.5192 10.0536 18.8739 -23.076 
13.9204 10.4212 -24.4175 16.426 11.2399 -22.6575 17.2155 11.3122 -22.2763 
12.2236 9.05208 -21.4203 2.28123 6.48326 -37.029 3.00986 8.76408 -40.1446 
2.25497 11.2618 -43.2963 2.17244 13.4492 -45.9888 1.7077 3.59262 -26.8381 
4.68083 5.38851 -21.4587 6.30857 5.69533 -19.7875 7.44659 6.43981 -18.4245 
8.80032 6.58133 -17.6626 9.70686 7.31845 -16.9081 8.51177 19.5263 -22.8872 
7.39173 20.4886 -24.0157 6.14879 21.5243 -25.3424 4.95988 22.3912 -26.8137 
2.04739 24.6877 -36.7562 1.6708 23.9692 -33.0847 1.93911 22.9572 -27.0671 
3.25988 21.8797 -25.1366 1.84955 23.6222 -37.28 1.84467 22.7417 -38.8091 
1.98211 21.6061 -40.1898 2.40986 20.2305 -42.1035 2.2062 18.7879 -44.0892 
2.07539 15.3085 -43.8765 2.4635 16.9708 -41.7174 14.9613 10.0602 -16.2006 
15.6484 10.6371 -18.8662 12.0191 12.4837 -15.0092 11.8819 9.56796 -11.4547 
10.4395 15.8519 -18.0673 9.38544 16.9329 -18.7394 7.92529 18.1588 -19.7623 
14.5547 10.183 -19.5175 15.1748 10.4526 -19.1214 11.097 8.16632 -17.5384 
3.069 8.71012 -34.8278 2.09243 6.33864 -30.8654 2.19344 11.0222 -37.813 
2.12129 3.85596 -22.2066 2.22496 4.37423 -18.3135 4.2986 4.61424 -16.8812 
5.6897 5.04316 -15.5712 6.56871 5.78702 -14.4459 7.50266 5.97704 -13.7992 
6.79236 19.2775 -20.9777 1.70374 23.1565 -33.94 1.67427 22.332 -30.3508 
2.01474 21.8413 -24.2372 3.13656 20.9091 -22.3907 1.80608 22.1894 -34.8883 
1.86394 21.0913 -36.1539 2.02937 19.8334 -37.6069 2.50368 14.7417 -38.652 
13.1068 8.84851 -12.3596 14.0012 9.71423 -15.2188 13.6098 9.79725 -15.8075 
9.72706 12.6626 -12.6721 9.42684 10.6839 -10.4265 10.3444 9.73473 -10.0036 
9.778 7.59829 -7.28967 7.29056 16.762 -16.5818 6.40667 17.7712 -17.7709 
11.1453 8.28195 -15.5559 12.317 8.94714 -15.9484 13.1523 9.27615 -15.929 
9.07088 7.41154 -13.4646 7.475 6.03868 -11.7585 2.18317 7.28941 -26.6521 
1.87841 10.167 -32.1074 1.44315 2.57354 -16.7519 2.50193 3.3273 -14.1429 
3.54342 4.09634 -12.5577 5.71977 4.91563 -10.9859 5.47039 19.0676 -19.6151 
1.69778 21.4537 -31.1674 1.53296 21.9606 -26.3168 1.62028 21.32 -26.802 
1.6753 20.5611 -27.4658 1.62337 20.3604 -20.8823 2.92492 19.1512 -18.9221 
1.86507 20.4054 -31.9913 2.43724 19.2949 -32.7299 2.4467 17.7908 -34.5226 
2.10332 14.8595 -34.1013 2.20091 16.1384 -32.2824 11.0509 7.47048 -8.78809 
12.3627 8.43641 -11.6742 11.4 8.08158 -11.2553 10.0937 7.63046 -10.7747 
7.9429 10.8973 -8.89969 6.96423 11.8755 -9.35467 7.87516 9.40692 -7.04659 
8.52945 8.66981 -7.01362 8.88509 7.84394 -6.30632 6.46606 14.5245 -12.5338 
5.74765 16.0067 -14.3881 9.75912 7.21077 -11.5739 7.3819 5.9633 -9.3932 
5.61544 4.6247 -8.18976 2.38022 6.533 -21.45 2.03688 10.228 -27.4235 
1.05934 2.25703 -11.8816 2.22426 2.33639 -10.1823 3.18446 3.05366 -9.44016 
4.56238 3.88766 -7.84815 1.72071 19.6206 -28.3026 1.39573 20.8043 -23.2185 
1.61159 20.0469 -23.288 1.55429 19.2937 -23.6535 1.68802 18.5804 -24.4345 
1.6133 18.7224 -17.5445 2.71548 17.7013 -15.9425 2.27753 17.6618 -31.5043 
2.23304 14.2558 -28.6815 1.88904 15.3822 -27.6124 10.2819 7.04931 -7.90255 
8.86147 5.92679 -4.74206 9.69512 6.80489 -7.97939 8.10067 5.80249 -6.73086 
8.32291 6.63031 -4.84242 7.3155 9.89001 -6.8233 5.79922 8.99813 -4.88265 
6.07426 6.82537 -2.7912 5.05318 13.7952 -10.6288 7.27986 5.43613 -7.53115 
4.10249 3.28347 -5.18898 1.63211 6.04744 -16.9158 2.26343 9.26883 -22.5117 
2.28104 12.2493 -26.2157 0.875074 1.81823 -8.65514 1.70705 2.1666 -7.57525 
2.39604 2.60472 -6.73861 3.22215 2.82888 -6.15003 3.11039 2.85353 -5.05406 
1.50964 19.4508 -19.9791 1.44655 17.8787 -19.9594 1.71808 16.3676 -21.1879 
1.2542 16.6001 -13.7417 1.7834 14.4649 -23.119 6.98653 4.71371 -3.64973 
6.65288 4.67432 -4.2079 5.98113 4.55387 -5.08422 5.11816 3.65865 -3.19271 
6.78032 5.83527 -2.80702 6.32526 7.97702 -3.48543 5.14147 9.19393 -4.82933 
5.8209 12.1576 -8.85853 3.39095 11.8131 -7.4676 4.32917 11.3822 -6.88245 
3.6319 2.85882 -3.61735 2.73499 2.26211 -3.2424 1.69713 8.50041 -17.9755 
1.5673 4.18027 -12.7294 0.59751 1.39523 -6.11767 1.3058 1.72132 -5.29538 
1.79585 1.98785 -4.58012 2.05558 1.95542 -3.18537 1.80944 15.5316 -21.5924 
1.06269 17.5944 -16.2131 1.41036 16.132 -16.2585 1.71083 13.9427 -17.7521 
1.92159 11.8633 -19.3207 2.03857 13.1223 -18.8477 6.70824 4.55016 -2.68144 
4.44141 3.0635 -1.01772 4.17886 2.86069 -1.54412 5.82025 8.24644 -3.75634 
4.42726 9.15978 -4.33534 3.03323 9.85582 -4.39712 3.15556 2.39142 -2.34318 
2.41 1.92509 -2.07319 1.83576 1.55955 -1.91504 1.68754 8.57023 -14.5762 
1.37223 5.21771 -11.2591 1.29236 3.31784 -8.95601 0.490061 1.09103 -4.17035 
1.04597 1.30219 -3.356 1.35895 1.57645 -2.90689 1.30318 1.2735 -1.79454 
1.25831 15.1279 -12.0448 1.28356 14.544 -12.0516 1.2948 13.719 -12.023 
1.41682 13.4329 -13.0419 1.81463 12.2771 -13.477 0.751093 12.6974 -7.62039 
1.64885 12.011 -6.81946 2.60961 12.4444 -7.63579 1.61744 10.7405 -15.1968 
2.58193 1.87797 -1.06386 5.80083 4.62833 -2.16043 5.82328 5.44834 -2.59709 
3.65082 6.54331 -1.88579 3.9218 9.14904 -3.7678 5.02314 5.58448 -2.12435 
2.15184 1.67827 -1.11012 1.70371 1.39365 -1.06071 1.27911 1.13562 -1.00073 
1.1622 3.51099 -6.273 0.912104 2.56095 -6.234 0.766328 0.914986 -1.57641 
0.937795 13.37 -9.11524 1.11956 11.0979 -7.84285 1.3768 10.5524 -8.37547 
1.22533 10.4231 -9.58477 1.46726 9.31667 -10.902 1.13669 8.64518 -8.5224 
0.973298 10.3842 -4.48406 4.37919 3.45224 -1.60221 4.32103 3.93194 -1.38195 
4.92469 6.54509 -2.60487 3.79098 5.53578 -1.78298 2.97312 5.73414 -1.89928 
3.16919 7.01874 -2.18354 3.81398 4.68576 -1.57849 2.46697 9.85493 -4.0083 
1.98202 9.43139 -3.60518 0.765738 0.778331 -0.470018 0.744581 2.0505 -4.27965 
0.405302 0.58375 -1.5275 0.391576 0.489679 -0.494127 0.876373 9.65824 -5.35998 
0.711122 8.44393 -2.9713 0.544041 9.83823 -3.78611 0.73388 7.20164 -3.91471 
0.833006 7.69024 -5.38572 0.893559 7.67961 -6.35754 1.05698 6.62545 -7.13703 
0.798458 5.9673 -5.37744 3.40828 2.82515 -1.21973 3.43891 3.32635 -1.13051 
2.60384 2.23214 -0.775745 2.15354 2.02192 -0.875698 2.94672 4.40013 -1.31666 
2.9089 8.49802 -4.00567 2.13116 4.71928 -1.42719 2.19667 6.02582 -2.03475 
0.783074 4.12068 -5.15457 0.873492 2.42625 -3.47827 0.507366 1.54358 -2.81381 
0.464892 5.12165 -1.3257 0.495515 4.70254 -1.7704 0.571691 5.27352 -3.0948 
0.87099 5.34771 -3.88046 0.793507 4.08559 -3.4072 1.48994 9.33888 -3.10887 
2.21331 2.51756 -0.93362 1.66254 1.66047 -0.760719 1.75347 3.67222 -1.1296 
1.80646 7.05304 -2.15918 1.35421 4.40916 -1.11504 1.81928 8.69916 -3.25037 
1.26268 1.39071 -0.733743 0.872806 1.19011 -0.815507 0.512919 0.902034 -0.648248 
0.346521 1.07986 -1.63037 0.246468 0.698951 -0.841135 0.445982 4.03985 -0.682426 
0.30866 3.36438 -0.713343 0.446236 3.64754 -1.53484 0.436944 3.29101 -1.82981 
0.515628 2.5553 -1.97101 1.87572 2.79235 -0.935433 1.23041 1.84523 -0.810685 
1.28235 3.6828 -1.0127 1.43719 3.01461 -1.06172 1.00331 5.33332 -1.50464 
0.794907 6.06164 -1.4058 0.841047 4.00788 -0.936561 0.955978 1.65567 -0.907865 
0.497395 1.27619 -0.62745 0.213958 1.05598 -0.639372 0.241718 1.56916 -0.9008 
0.360584 2.80048 -0.665433 0.899553 2.01152 -0.726153 0.955053 2.48125 -0.82326 
0.991684 2.98189 -0.860626 0.778363 3.51528 -1.05383 0.601345 1.817 -0.974257 
0.259676 2.28161 -0.592776 0.622704 2.70808 -0.9432 8.42736 5.5189 -104.635 
8.99477 7.17554 -103.198 8.02963 4.98025 -105.624 8.06956 9.23944 -102.318 
8.25903 10.495 -100.832 4.89984 10.9696 -102.562 4.15995 11.338 -102.463 
2.46399 8.89485 -106.106 0.437268 10.4538 -104.376 6.98137 5.13501 -2.49227 
4.09756 8.81796 -2.82082 2.94699 8.33518 -2.85392 0.463898 0.833381 -2.59811 
9.11014 7.78759 -101.445 7.12866 7.17558 -103.444 9.40015 9.97967 -98.506 
11.9241 10.5059 -95.4358 7.30872 9.12577 -101.609 12.0601 12.5706 -92.7586 
9.68706 12.2644 -95.721 7.10823 11.0905 -99.4036 14.7783 12.4019 -89.0191 
8.77167 7.3527 -101.029 4.79001 6.36175 -104.243 4.98353 9.72037 -102.755 
13.6671 15.0752 -86.5745 11.6179 14.595 -90.2342 7.50056 13.8573 -95.5679 
15.9988 13.619 -84.6064 3.16644 3.13506 -106.605 11.471 10.0221 -95.2766 
8.31477 8.37663 -99.5575 3.00816 5.27614 -105.784 3.71504 8.09538 -103.799 
15.201 15.541 -83.0276 5.15643 12.3204 -99.1585 7.28593 16.3602 -92.2269 
17.3344 14.0184 -80.7531 2.37614 2.51904 -106.779 5.27852 4.91042 -104.269 
12.0922 10.8497 -92.4277 7.29396 7.55013 -99.7003 1.58873 2.2155 -107.094 
4.45678 5.10518 -103.678 1.99531 5.73338 -105.629 3.01856 10.0626 -102.999 
15.6797 17.2161 -77.2489 5.2075 16.0668 -93.8291 19.2792 15.5246 -72.614 
5.08342 5.95192 -101.027 1.28093 3.82991 -106.296 0.912965 1.72637 -107.189 
1.66698 9.53829 -104.14 17.0474 17.6319 -72.3307 10.9395 19.7553 -80.4145 
8.28481 20.4523 -80.9813 5.13022 20.0797 -84.9141 19.409 16.5232 -69.1435 
2.98715 4.01593 -104.363 12.8387 12.2553 -86.5263 4.8454 6.93412 -98.7778 
2.96131 4.58799 -102.619 1.66302 7.37526 -105.022 14.7402 20.2867 -71.6599 
10.2471 21.3279 -75.6456 6.46723 22.3515 -79.7141 2.93284 16.8801 -93.1618 
15.8072 14.1879 -78.5756 12.2172 12.2894 -83.7982 3.25798 5.21448 -99.6035 
4.35256 6.70988 -94.5347 1.61145 3.22878 -104.027 7.72718 22.3297 -76.3009 
4.03145 23.2644 -78.1254 2.59674 13.3822 -98.8276 17.7063 14.9847 -73.2028 
14.286 13.5339 -78.5291 4.13192 6.97759 -89.7822 15.4754 20.8362 -64.0591 
13.1812 21.5286 -67.2874 10.4258 22.4744 -67.9049 8.84322 23.3536 -70.8649 
5.9548 23.6924 -74.6541 19.4243 17.8235 -59.8872 16.8196 19.5111 -60.1145 
20.1699 16.51 -65.047 8.73357 10.5707 -79.8565 12.7298 22.3978 -63.1541 
6.23211 24.5981 -70.1444 20.3005 16.8831 -56.015 18.5289 19.1087 -56.1644 
18.4894 15.9329 -67.174 5.6356 8.54295 -82.4377 9.13216 11.0757 -74.7305 
10.3219 13.1372 -70.8177 2.16339 8.40371 -102.592 10.3165 23.41 -62.571 
7.7948 24.5701 -65.7911 20.2926 17.0749 -52.2866 18.3543 18.9321 -51.5702 
16.2558 14.71 -65.323 17.7122 15.4304 -62.96 6.26048 10.1235 -75.063 
2.35965 6.55126 -103.342 3.01665 11.8924 -99.5257 14.2649 21.8054 -57.6762 
16.4034 20.6911 -54.2024 11.5251 23.4293 -57.7339 7.99013 25.1039 -60.5974 
5.40989 25.6396 -64.7694 20.116 17.1285 -48.7684 18.3386 18.8792 -47.8507 
18.7255 15.9665 -58.9986 2.54495 6.99311 -101.289 3.39492 12.2857 -96.812 
13.4226 22.1987 -51.3079 8.77598 24.4177 -54.7224 3.92362 24.3753 -72.6736 
4.46249 22.1802 -75.5391 19.8923 16.6186 -44.7037 17.7026 18.3383 -43.8823 
15.9592 14.5384 -57.644 18.7664 15.9379 -55.1041 5.67824 9.53559 -65.3313 
10.6839 23.3319 -50.2467 7.62951 25.8004 -52.4592 15.2418 20.5894 -46.1986 
4.12142 26.3526 -60.2843 4.15161 16.5203 -90.1276 4.35359 23.5483 -69.8777 
17.9589 17.9442 -39.9809 13.1181 13.3341 -56.943 5.77297 9.60376 -59.8552 
11.3677 12.5338 -52.1195 5.64939 9.21925 -93.2842 12.6574 22.1192 -45.073 
7.6012 24.6229 -48.5191 16.1603 19.6842 -41.5246 4.12243 24.0344 -65.48 
4.78759 21.433 -71.7537 19.453 15.9566 -39.1121 18.5457 15.9106 -47.6084 
4.47554 13.0895 -89.5722 4.73322 15.5014 -88.0257 11.7077 22.0427 -40.369 
9.6139 23.3689 -43.1823 5.04404 25.8782 -48.0253 4.4125 21.4871 -66.4036 
4.84436 19.1233 -71.7644 17.4085 16.8697 -34.1186 15.8311 18.418 -36.234 
14.1593 14.0658 -48.0371 16.9866 15.0223 -43.6131 12.063 12.811 -43.7234 
5.36763 9.10812 -70.2907 4.72743 9.43041 -88.1781 4.10203 10.247 -83.7312 
4.6073 15.5497 -83.8955 7.11557 24.2887 -41.5933 13.4311 20.4899 -36.5211 
4.65153 25.1684 -43.0582 5.21487 18.2441 -67.9637 17.8167 15.5711 -39.8714 
14.3911 13.9321 -40.6371 5.16117 11.6399 -78.1741 5.6726 9.54035 -43.1908 
4.63239 12.2648 -66.16 5.11903 12.793 -84.4886 10.862 20.8718 -33.8709 
8.59577 22.6837 -37.1772 4.44772 24.5252 -38.5887 5.24145 15.6675 -75.2793 
5.30011 18.4899 -62.2633 5.76768 15.2041 -66.1515 17.6666 14.9292 -34.7408 
5.25909 14.1845 -72.1254 7.88556 21.9619 -32.481 5.89638 23.6849 -34.9 
4.98072 23.9637 -52.1727 4.80599 22.0074 -55.23 5.37521 19.6009 -56.8582 
14.6118 14.6252 -22.8789 13.1109 17.7714 -27.2405 5.06081 13.0948 -59.5038 
4.73427 8.34463 -31.5284 9.26627 10.9208 -28.9225 9.90838 20.1131 -29.0231 
3.83457 24.2511 -33.7152 4.03065 24.321 -47.0016 16.1 12.8957 -22.4284 
12.7607 16.3182 -22.9897 14.2292 13.3939 -28.3543 12.6397 12.4697 -28.9119 
10.3622 11.2078 -24.0159 9.84953 18.0646 -23.3678 7.66912 19.9228 -25.0686 
6.41497 21.6106 -28.8778 4.53117 22.1425 -47.0571 5.07972 20.1507 -49.8648 
5.16148 17.5817 -48.973 13.9139 12.3207 -18.0971 11.9912 13.5671 -17.6173 
4.55089 12.6252 -46.1508 5.72175 8.21986 -21.0669 5.45163 20.8499 -25.1922 
4.5386 22.3911 -40.7148 10.0563 14.9522 -17.5714 8.16477 16.0089 -17.3582 
13.0506 12.1956 -22.4157 14.6437 12.71 -22.2242 3.66026 6.73936 -16.9993 
7.83082 8.60083 -16.7726 6.79474 18.4833 -20.883 3.3892 19.9855 -21.893 
4.65978 20.5655 -39.9844 5.67402 18.972 -42.7762 10.6208 9.43372 -10.5667 
9.86021 10.9695 -11.748 7.81491 6.78145 -5.63706 8.32545 12.43 -12.4645 
5.83453 15.4102 -14.5807 12.4567 11.2116 -17.2636 4.8079 6.90262 -14.2291 
6.09773 7.66403 -12.425 4.80515 18.0072 -18.1888 3.55692 22.4499 -27.6689 
4.35147 21.5053 -30.3499 5.17694 18.8226 -35.6681 10.9382 9.86102 -12.75 
6.3363 9.06634 -6.67947 7.07377 8.17706 -5.94808 6.12031 12.8634 -11.0233 
9.69173 9.75348 -13.9824 3.16332 5.27751 -10.2762 3.94145 5.41982 -8.62692 
3.97756 19.848 -25.6893 3.13334 16.9408 -15.4194 4.27516 19.2062 -29.9898 
5.73148 13.4075 -30.9198 4.54165 16.2564 -30.4054 4.91043 9.82392 -6.45585 
4.26521 12.9988 -9.89462 5.60919 6.65657 -8.82773 4.84988 10.9071 -25.6388 
4.00547 17.6017 -23.9821 4.2823 13.7168 -24.6374 7.52418 6.65911 -6.41511 
6.00508 6.05453 -5.48297 2.38195 13.6259 -10.0981 5.918 6.64187 -7.17614 
4.46111 10.2163 -20.2254 3.59374 15.397 -19.2429 4.51347 14.9146 -22.598 
2.64624 3.02983 -2.5373 1.33237 2.09277 -2.26235 3.10834 15.2964 -13.9752 
1.94573 10.9967 -6.17601 4.00905 9.81448 -15.0933 3.28701 12.4538 -11.0724 
1.85566 2.16025 -1.90808 2.82375 8.21781 -9.03121 5.27273 6.14559 -4.26363 
1.99983 3.43298 -5.36545 1.45443 6.50035 -3.77587 2.09348 5.25605 -5.58133 
4.60149 7.22565 -5.18843 2.85069 7.69487 -4.59469 2.35476 9.54854 -5.91079 
2.91884 4.43921 -2.96122 1.57976 4.47889 -2.5597 3.69273 9.4566 -3.53813 
2.73086 4.21002 -105.783 13.2607 14.9865 -70.9665 4.29812 12.0691 -15.4135 
5.54464 9.13138 -100.541 8.75935 11.7559 -94.6518 11.4759 14.2142 -88.2744 
5.4792 12.6953 -96.5941 5.20907 8.84082 -99.0923 8.61837 12.6029 -89.9007 
12.4317 15.809 -82.0294 14.4397 16.5863 -74.2184 9.52015 17.8197 -81.4486 
6.10514 19.443 -78.9551 9.06528 14.6951 -84.1251 14.7878 18.3545 -67.1517 
11.9981 18.8483 -72.2395 8.41183 14.7991 -77.5088 11.3697 19.4683 -66.3982 
7.42516 21.8615 -66.6381 15.4414 18.454 -55.8417 12.1614 20.3262 -60.5058 
10.911 20.1975 -54.7191 10.1905 16.792 -58.6641 11.8091 19.8468 -48.3168 
7.92782 21.6785 -52.3009 15.0544 17.1721 -40.3232 8.02586 21.8571 -45.45 
7.68515 23.2657 -58.2259 9.13612 16.6402 -50.8319 8.63055 19.2842 -74.6607 
11.8427 18.2898 -37.0341 8.06024 20.7976 -38.5444 9.11191 17.6682 -71.8649 
14.1569 16.4564 -32.0478 13.0619 16.6524 -44.0612 9.49594 16.3578 -41.7274 
9.06488 16.6619 -66.2262 8.52825 15.89 -33.5258 7.50067 18.7844 -29.5426 
11.4224 17.4883 -28.7331 11.8406 14.6312 -22.2315 7.76573 13.8399 -26.6915 
7.04339 17.0032 -22.4745 10.7425 14.4881 -26.03 6.77715 12.7401 -20.2987 
8.28727 13.9366 -17.0516 9.14202 18.8538 -45.5883 8.383 11.0503 -12.2049 
5.45243 14.4108 -14.9524 5.0883 9.95757 -9.07157 4.08097 6.8512 -6.70036 
7.42264 16.5366 -87.6945 11.3548 15.7359 -77.9227 15.5812 18.3578 -48.7605 
14.0641 17.467 -60.8412 13.1885 16.4497 -52.4951 7.90954 20.55 -61.2784 
6.38903 16.1923 -59.3529 7.06414 11.0512 -14.3408 12.1817 19.8943 -42.4436 
7.02885 10.1652 -102.133 1.41113 6.02688 -8.54782 3.62154 12.6221 -40.8029 
5.19705 17.2055 -78.061 6.62925 6.3171 -86.8231 11.7881 12.2262 -77.643 
7.67272 8.95495 -95.3057 11.8032 19.8413 -81.635 2.27345 26.2972 -40.1165 
5.47047 15.1605 -45.3335 15.5768 16.5659 -28.784 1.93784 23.7595 -30.0929 
12.7033 13.9061 -34.7631 15.5367 13.8588 -27.3002 1.50183 3.37028 -105.46 
17.8309 18.8279 -66.0103 10.6867 10.022 -92.3906 0.584625 3.72109 -107.593 
7.58575 14.3245 -95.9235 1.83225 12.2438 -22.7863 5.3715 15.8024 -37.4119 
10.1051 10.6268 -18.9055 12.5718 17.4585 -85.3677 7.72316 23.9388 -33.7834 
9.66515 12.1266 -35.8872 12.7489 21.6838 -75.5466 8.2153 9.64026 -22.0394 
10.3546 15.15 -91.9759 16.6118 14.4903 -70.518 4.60289 22.0573 -60.7217 
3.57789 17.6038 -19.6533 0.876362 2.12856 -107.618 18.1429 21.0151 -52.4877 
16.8338 15.1183 -51.3187 4.67565 24.3444 -60.5227 0.335888 11.4883 -103.144 
2.27441 9.5868 -2.35907 5.45357 14.4807 -52.6628 20.3422 18.7626 -57.2866 
3.41249 3.95441 -4.848 10.8543 24.8196 -46.7855 2.93947 17.7214 -92.8369 
1.73779 19.076 -90.4795 4.88398 25.8397 -53.4165 3.24394 3.07225 -102.274 
0.398736 1.31493 -107.927 0.493135 1.28721 -107.271 4.26518 27.1229 -63.0074 
8.75222 11.2811 -86.7215 4.63808 27.5018 -54.633 0.58911 1.57778 -1.63093 
18.941 14.363 -32.3407 7.98938 18.3629 -87.185 19.2447 20.0291 -59.5988 
13.5607 19.4403 -76.4516 8.38019 11.679 -48.7443 4.45544 17.3572 -90.6905 
13.0194 19.6053 -31.7195 12.9735 13.2599 -64.2071 19.96 18.2886 -66.8642 
8.30793 11.4783 -65.1856 3.64371 10.772 -95.9839 17.1814 14.1826 -27.1452 
6.74983 6.72287 -3.6201 4.78939 4.01206 -4.85993 12.479 22.8665 -69.9714 
3.09227 8.02353 -105.632 5.52186 27.2529 -59.6159 15.4535 11.7293 -75.2171 
17.3696 12.6336 -48.3153 6.13284 16.258 -93.8387 4.56339 23.0831 -80.4767 
18.6317 12.8 -31.3308 15.1235 22.0063 -67.9885 14.4134 23.4241 -59.2729 
2.05106 14.3669 -83.3999 4.50081 20.1106 -82.3229 1.4095 9.68088 -100.309 
11.6794 9.65214 -48.6078 12.5275 17.0117 -22.397 2.58816 27.6626 -57.6623 
15.2035 11.2677 -58.4368 12.5928 9.80302 -60.7851 1.92487 23.7248 -56.7925 
21.4207 15.4079 -40.9784 15.6457 20.3844 -35.9731 11.4257 9.11202 -77.865 
0.412123 2.12398 -0.825909 16.6002 21.8044 -50.9548 4.6274 22.0754 -35.0897 
3.60895 14.9188 -11.5805 3.57873 2.57278 -1.83966 4.19485 20.5357 -86.6807 
20.6734 18.784 -53.6161 20.3964 13.7521 -76.249 13.9067 10.8503 -38.8877 
1.52462 1.75696 -104.672 7.00724 10.7244 -38.6682 13.4815 9.90331 -20.3779 
1.53684 17.1007 -91.4702 6.23633 19.5321 -87.8337 2.04473 8.75669 -93.6978 
0.648256 3.09538 -107.61 18.4276 14.4359 -76.6039 0.720183 3.28611 -3.42566 
14.4037 12.5413 -86.5712 1.52822 2.33261 -0.915151 10.2108 15.9407 -89.4538 
18.0472 13.2919 -25.554 16.0702 11.1787 -19.1657 17.5365 18.938 -36.1361 
2.25165 17.3483 -81.6487 10.2258 9.06873 -71.2891 2.70365 2.56042 -107.933 
2.30688 2.22272 -105.263 2.45047 10.6026 -66.5387 2.41154 17.7328 -60.2244 
6.60372 26.5748 -56.3005 16.0192 14.1695 -35.4238 3.26854 27.6427 -51.2833 
9.01428 12.4788 -57.2838 6.35579 9.10381 -28.0601 8.8444 8.56311 -58.6442 
1.61619 17.7001 -17.7582 2.65226 27.3865 -46.6225 2.6742 16.8952 -85.1023 
2.02672 17.3774 -26.4364 2.74492 3.67724 -1.39368 1.35754 3.10503 -2.20825 
18.341 12.8617 -61.186 13.2406 10.9753 -14.9231 5.4844 9.27909 -3.61621 
8.38739 6.1795 -104.666 1.65733 16.2627 -18.8503 2.07484 18.8284 -87.1754 
3.28164 3.26703 -2.0032 0.744327 2.42378 -104.106 13.1966 9.76043 -87.885 
2.19309 7.1721 -5.89094 16.9897 12.0455 -31.1573 2.5053 20.3431 -75.7406 
16.0643 11.8761 -38.3591 10.2425 8.77497 -90.6781 3.51505 12.3071 -33.2838 
12.715 17.595 -82.7209 5.67024 23.6836 -31.0449 12.6637 9.93959 -55.5303 
1.64854 10.1068 -95.2584 4.78795 15.7423 -95.5861 1.90092 22.5236 -79.1324 
7.58153 25.089 -70.8837 2.00437 14.5215 -10.5599 4.72044 20.1147 -21.4289 
15.2945 16.7941 -26.3527 16.3611 11.3997 -25.8268 2.05139 17.6293 -38.1925 
8.41394 14.362 -13.9573 2.45665 26.232 -70.3521 0.703249 4.77765 -107.206 
10.9445 8.58036 -83.4212 5.13453 4.77039 -105.506 4.43209 17.7458 -16.5651 
15.9528 18.6577 -77.3061 5.33681 9.52984 -51.7008 21.7024 15.664 -68.2048 
1.75125 6.83427 -99.1565 9.26104 17.0834 -90.04 9.64785 25.5397 -64.0188 
3.88042 12.312 -12.8474 20.6556 18.1184 -62.1082 8.58022 22.8912 -77.2647 
17.1751 12.3052 -22.4284 4.33212 3.99647 -10.1229 4.33971 9.45279 -105.583 
1.09773 11.118 -4.98906 0.103565 8.38278 -0.579161 3.63056 8.43358 -1.37979 
8.41688 5.20435 -104.3 3.30134 7.74933 -0.438408 6.13006 5.79645 -108.281 
0.250336 0.291364 -0.671415 0.686955 7.92704 -0.86562 6.08028 7.41814 -107.132 
6.57454 5.40625 -107.517 4.28614 7.60269 -1.63439 8.09216 4.8131 -105.709 
3.9373 7.68613 -107.092 0.101753 8.76564 -107.964 7.026 5.1929 -107.147 
3.61322 8.65567 -1.42637 3.37221 7.54349 -0.623724 6.97788 6.10901 -2.00941 
6.20814 7.50499 -2.18941 6.96362 6.33621 -1.73827 7.07536 4.39804 -1.66752 
10.1594 6.16087 -102.476 2.92217 8.12501 -108.282 0.477736 10.2645 -105.066 
3.14322 9.39495 -105.979 0.522153 8.26852 -0.908768 4.97273 7.81063 -2.42467 
4.758 7.50825 -106.855 1.13843 9.3615 -2.15504 3.39073 7.96713 -106.869 
2.86088 8.10669 -1.47897 2.27993 9.47991 -106.197 0.233869 0.261872 -108.568 
2.42006 8.741 -2.22631 0.217601 10.8298 -4.6167 3.48153 7.62524 -0.626407 
5.67806 7.70682 -1.97505 2.61166 8.53707 -107.214 0.155847 0.249235 -1.11469 
0.0784634 0.308938 -0.274257 0.13044 0.473827 -0.315088 7.41651 5.66468 -105.867 
4.92985 7.32995 -107.785 4.40655 8.20547 -1.77327 6.6446 6.81039 -107.121 
2.32265 8.64015 -107.218 1.84399 8.29218 -1.16843 6.96558 6.54052 -1.65614 
5.33614 7.03379 -107.347 1.02055 28.5033 -58.2775 0.348246 13.0585 -101.073 
17.746 11.115 -21.7535 6.04877 7.1319 -2.4286 2.65403 1.71333 -0.55867 
4.13069 8.57488 -2.29008 6.20585 6.25829 -1.42347 0.120887 0.213297 -108.074 
0.960326 28.1676 -48.0161 0.96716 8.93885 -106.827 0.950611 28.3831 -52.623 
0.261131 13.6952 -8.94375 0.158093 1.24639 -108.457 0.234678 0.412992 -108.302 
9.73466 5.83587 -4.94901 7.46741 5.15244 -1.79437 1.08668 26.5976 -71.4482 
19.3042 11.8221 -83.379 21.6964 13.5199 -33.6532 0.128255 3.72071 -108.457 
0.188715 6.19833 -107.946 0.230668 6.63991 -0.94424 11.8737 7.21678 -99.3797 
0.697123 28.2126 -59.2023 0.117592 0.490103 -108.532 20.3425 12.4941 -80.3791 
10.8171 6.59299 -7.46803 0.231918 8.17499 -1.32957 1.67547 1.10457 -108.5 
4.24392 2.67465 -108.169 24.2408 14.8312 -58.2116 12.4549 7.68141 -10.4533 
0.633138 0.488366 -0.283922 0.504843 16.5648 -13.7053 0.295913 7.95053 -107.172 
0.911581 23.7064 -80.6001 24.0431 14.7693 -61.2275 0.730502 25.3439 -33.0223 
0.755536 26.2201 -36.1469 1.02226 1.71711 -77.7156 0.233481 5.57334 -0.738449 
20.5532 12.7458 -29.5138 0.803385 26.9225 -39.4373 0.646018 24.3102 -29.8555 
18.0351 11.1034 -86.5244 16.4792 10.2216 -18.6849 0.640868 23.1624 -26.8959 
0.618415 21.8611 -23.7818 22.0876 13.53 -74.1644 0.126528 3.09945 -108.455 
21.2861 13.038 -77.3155 16.7358 10.4161 -89.5952 0.76905 1.3086 -15.7651 
0.549417 18.6952 -17.3938 5.09942 3.18456 -108.083 0.581262 20.3732 -20.6277 
2.14888 1.39355 -108.422 2.6457 1.69035 -108.382 0.205382 2.56444 -108.329 
0.626123 0.542179 -108.466 0.828418 21.8152 -85.1462 22.8219 13.9597 -71.1309 
23.3332 14.3317 -67.861 1.0726 1.87639 -66.1934 0.181978 4.19342 -0.572036 
0.795115 20.3074 -88.3392 0.886085 18.4912 -91.8087 0.265346 0.5432 -104.718 
3.23309 2.06831 -0.559878 0.953835 1.6776 -83.1281 1.05301 1.83928 -72.0237 
0.260277 12.4945 -7.17974 0.139355 2.38637 -0.364646 23.8044 14.619 -64.6717 
0.338565 0.677638 -6.00716 0.887189 1.47508 -88.308 0.730912 1.3595 -93.049 
0.992252 1.79512 -42.4447 0.570798 1.05457 -11.764 0.935296 1.66732 -30.8428 
0.483644 0.9212 -100.225 0.585762 1.16951 -97.0031 0.511985 0.896709 -8.53346 
0.370088 0.720756 -102.772 7.22433 5.77485 -2.35401 19.6581 12.1626 -26.6426 
10.4981 6.56353 -101.827 1.00312 24.8392 -77.5325 23.1999 14.3883 -41.5315 
22.6523 14.0849 -38.3933 0.268297 0.402955 -106.792 23.5848 14.6773 -44.9353 
24.1441 14.9259 -51.3549 24.2795 14.9553 -54.829 23.8825 14.787 -48.0891 
0.292103 0.556973 -4.12084 1.00828 1.86277 -60.2259 0.939404 1.68118 -25.4617 
1.00016 25.7862 -74.46 0.520734 14.8493 -98.0055 1.14826 27.1965 -67.9792 
1.06679 1.84568 -36.5591 1.09001 1.89347 -54.2836 1.09001 1.87975 -48.317 
0.879733 27.8119 -44.4633 0.254702 0.402362 -2.62596 1.3218 0.947778 -0.403401 
0.974735 0.715134 -0.389432 1.72166 1.18043 -0.441571 2.1744 1.43789 -0.487621 
0.872061 1.53296 -20.2871 0.207478 0.458504 -106.125 3.95012 2.47679 -0.679854 
0.112675 0.79342 -0.365535 0.170468 3.47863 -0.435854 0.135404 0.845301 -108.489 
0.150689 1.54006 -0.40377 14.9502 9.23515 -15.4011 0.147031 1.63338 -108.454 
1.16816 27.7205 -64.6001 0.130726 1.14718 -0.379204 14.3296 8.96908 -94.7701 
4.83734 3.0051 -0.810227 0.202571 8.45803 -1.19173 3.33403 7.58747 -0.410938 
0.16409 0.36465 -0.822535 0.116482 0.308343 -0.534387 6.95856 4.17001 -107.362 
3.47143 8.25387 -0.483932 6.62627 6.0598 -1.13313 0.20352 0.281751 -0.237954 
2.74551 8.15859 -108.371 0.125833 0.338949 -108.566 9.70423 5.8429 -103.137 
0.262185 9.12801 -106.631 9.27598 5.45084 -103.762 5.1194 7.70402 -2.42015 
6.03098 7.19865 -106.373 6.66066 5.96739 -1.78518 4.08768 7.6418 -107.965 
0.265829 11.178 -103.834 4.27316 8.40558 -2.64529 0.912108 8.52582 -0.919556 
7.57013 4.90127 -1.8775 6.90204 6.59234 -106.045 0.380239 13.6316 -99.8561 
0.242956 11.2726 -5.59752 1.88689 8.7196 -107.254 4.32686 7.107 -108.201 
6.39001 6.82267 -107.026 0.119242 0.161311 -108.38 7.79518 4.7465 -1.55092 
2.36267 8.21679 -107.687 5.907 7.52208 -105.951 6.51625 7.51572 -2.09496 
0.849208 23.0966 -82.1916 0.271437 7.6363 -1.49432 0.797503 28.139 -61.2823 
0.285092 5.12058 -0.743279 6.3715 6.76814 -1.75141 0.228247 0.295731 -1.58326 
3.27976 8.64323 -2.20437 6.02572 7.83352 -1.52514 0.184865 0.289408 -107.336 
6.06989 3.75205 -1.18105 22.0505 13.6941 -35.1549 2.40457 9.3153 -106.844 
11.3997 7.0632 -8.66532 0.578799 9.24054 -106.427 10.2815 6.21172 -6.28864 
5.3205 7.28307 -107.454 22.3515 13.7368 -72.8021 1.24415 2.27698 -63.5229 
1.09019 1.9909 -85.4879 1.22237 2.09422 -74.5006 12.6531 7.7931 -97.9664 
3.69967 8.30904 -107.178 0.215604 6.07896 -0.858488 0.796823 28.229 -50.9517 
20.7841 12.8051 -78.8511 0.685338 23.7114 -28.3426 4.6468 2.97284 -108.121 
24.1363 14.9808 -56.5507 0.262471 5.45225 -108.185 3.80632 2.53154 -108.203 
15.8802 10.1205 -91.291 0.202257 6.70856 -107.899 0.763715 26.5948 -37.8259 
11.4501 6.96512 -100.095 0.579969 21.1233 -22.1157 0.824715 1.39171 -17.9241 
13.2917 8.17176 -12.0245 0.962489 21.0094 -86.8646 0.595742 19.5581 -18.9934 
17.3318 10.7872 -88.1237 0.49947 17.6535 -15.5617 23.0212 14.2504 -69.4749 
0.780744 25.7739 -34.5846 1.01179 22.5244 -83.6139 0.682419 19.5921 -89.7944 
20.0433 12.6198 -28.1122 21.6628 13.3036 -75.7769 22.3489 14.0062 -36.8339 
22.8379 14.301 -39.9305 23.3111 14.6391 -43.1574 24.3414 14.6951 -59.6272 
23.7433 14.7354 -46.5039 0.630763 22.5179 -25.2845 23.9779 14.9295 -49.7168 
24.2139 15.0686 -53.0447 0.683682 24.851 -31.3992 0.487595 15.2387 -11.5041 
19.0336 11.8932 -25.0699 0.939404 1.68118 -22.7793 23.9506 14.7486 -62.8362 
23.5737 14.4835 -66.2406 1.08078 28.4213 -54.4076 0.633948 17.5279 -93.5979 
5.50994 3.42553 -108.116 21.0408 12.9203 -30.9376 0.666231 1.22077 -13.5775 
1.08684 1.87792 -45.3378 1.09001 1.88809 -51.2837 1.04331 1.83213 -33.6387 
0.131316 0.207002 -107.691 0.85384 27.2476 -41.1883 19.9351 12.1662 -81.7851 
18.7255 11.491 -84.9211 1.09001 1.89038 -57.2892 0.292465 0.479147 -3.34428 
0.358511 0.631076 -5.00626 0.356804 0.623008 -103.83 0.47663 0.812692 -7.1823 
0.446993 0.818162 -101.584 0.593196 1.06085 -10.0405 0.627995 1.01225 -98.7021 
0.785819 1.29498 -95.0838 0.873995 1.45339 -90.7055 1.06679 1.84568 -39.5112 
0.939404 1.68118 -28.1442 0.287824 0.458273 -105.5 0.822718 1.43668 -80.4566 
0.908262 1.57517 -69.1108 3.59028 8.19989 -1.80506 0.169565 9.90343 -3.18091 
2.70109 8.47585 -107.47 0.218613 0.260828 -108.314 3.51648 8.72467 -1.74538 
0.260216 8.30135 -107.105 5.8651 6.89194 -108.146 0.34985 0.358718 -108.58 
0.183684 10.4603 -105.019 8.53948 5.25241 -3.04405 0.0815619 0.203957 -0.731353 
0.0841377 0.160289 -0.199138 0.0976074 0.192747 -108.627 0.19917 0.355209 -2.06013 
0.100976 0.16637 -0.476939 
METADATA
INFORMATION 2
NAME L2_NORM_RANGE LOCATION vtkDataArray
DATA 2 0.0830173 109.178 
NAME L2_NORM_FINITE_RANGE LOCATION vtkDataArray
DATA 2 0.0830173 109.178 

FIELD FieldData 2
PREV_PRESS 1 3625 double
14.0796 75.5951 59.6856 79.5987 74.8466 60.6353 60.8631 73.9048 69.5042 
68.1121 60.7743 60.479 59.3322 20.2666 22.6152 21.7317 23.0788 32.5558 
26.8417 49.5337 37.7836 23.9949 64.6233 58.2034 25.0991 24.4586 57.3726 
37.3793 58.7637 46.6193 24.0638 52.3407 49.9793 47.8538 68.956 19.4241 
36.364 21.632 32.733 45.1261 31.2158 18.3091 30.01 69.2972 21.8001 
23.2126 42.6001 53.2225 32.3117 48.1956 28.3568 12.2296 48.6555 13.0479 
14.0763 33.8017 11.9023 11.8816 15.3999 23.7837 12.3356 62.9455 11.99 
12.5903 39.2758 11.8904 21.0156 56.0501 44.5938 12.1397 11.7057 12.2958 
12.138 12.3435 13.0694 68.1254 65.9671 63.8316 70.048 65.8623 67.4836 
59.3338 61.1609 56.0048 43.0034 23.2338 24.6198 56.9335 59.9988 40.1598 
27.4175 13.8995 27.6307 25.2055 44.0532 22.8331 64.8991 44.4963 41.0533 
20.8911 23.1594 32.729 46.2715 65.4369 76.7219 61.6555 58.8159 30.8908 
56.967 82.0848 22.6572 67.761 48.1965 13.2381 53.054 21.0921 26.2217 
48.4245 48.5044 42.2243 14.6088 24.3333 25.0161 44.9519 21.999 43.7868 
53.4881 62.4058 21.5196 75.7998 22.24 46.0549 27.8276 43.7252 37.9539 
40.0181 33.0506 27.9577 24.3238 12.0144 11.9549 11.9895 12.0648 11.961 
11.8415 12.0514 11.7588 12.0218 12.4366 12.0327 78.3922 76.7258 75.642 
70.7036 62.2326 64.4311 62.3799 62.5316 68.5344 63.9991 67.3183 64.0465 
60.306 69.9685 74.9142 50.1088 39.9181 34.5877 26.4672 22.4698 19.9773 
18.0556 16.1685 14.9049 14.4217 14.194 14.1561 67.1587 13.1611 13.1248 
14.0368 14.9822 16.0378 18.1045 20.3735 21.4091 24.1146 28.6075 36.2125 
45.6347 59.8223 14.2298 13.3227 12.2165 11.6801 11.6782 12.0393 12.1076 
11.8735 11.8682 12.2296 12.2409 12.2317 12.2999 12.106 11.9654 12.0013 
39.6432 12.5942 13.4384 15.2355 16.3671 18.6581 22.1221 22.4469 18.5843 
16.3792 14.7955 13.7064 13.298 12.71 12.1963 11.9383 11.8507 11.9047 
12.0397 12.0899 12.1692 12.2179 12.2761 12.3432 12.2728 12.4669 12.5157 
12.561 12.5488 12.5601 12.9131 13.4632 14.2797 15.9348 17.8676 22.2294 
27.5388 25.6521 38.7948 16.3731 19.4342 21.0403 22.4199 23.6174 24.976 
25.1639 24.8011 23.7665 22.7324 21.6983 20.8527 20.0705 19.6613 19.4868 
19.6181 20.2151 21.0184 21.9138 22.8839 23.8525 24.8176 24.7977 24.0956 
23.5789 21.9806 20.9322 19.3518 16.6256 19.2147 16.7978 14.8325 13.7331 
12.9429 12.3009 11.5009 11.4732 11.8569 12.0723 12.2894 12.3035 12.2179 
12.2535 12.3134 12.3207 12.348 12.3377 12.286 12.1025 12.4373 12.9622 
13.8431 13.9917 15.6167 18.1564 21.4305 28.6632 13.7122 13.8982 14.5398 
15.5064 16.2879 17.4808 19.506 22.1046 28.0617 34.1418 42.2335 53.8071 
52.8225 39.3372 30.4917 25.2413 21.5538 18.7302 17.5573 16.2092 14.7992 
14.7159 13.9791 13.1083 35.1218 46.6678 28.8449 53.3082 33.8381 12.3738 
12.1015 12.1757 12.0922 11.9888 17.8745 15.3711 13.7033 12.2922 12.5185 
12.305 12.1611 27.3186 11.8749 11.6852 11.8572 12.0581 12.0124 11.7259 
12.254 12.9886 13.9132 15.1795 17.0055 34.7878 31.4357 12.1204 12.2081 
33.4586 12.0273 11.9966 11.9788 11.9316 11.9974 12.0337 12.1381 12.5999 
13.8354 14.529 16.0774 17.8116 12.6677 12.2729 12.1365 11.9912 13.9235 
17.587 23.7449 34.1485 29.43 12.3008 12.1469 12.1391 12.1385 12.0612 
12.1363 12.2925 12.3407 12.8985 13.4905 14.4204 15.8015 16.2658 18.9948 
12.1847 12.2319 12.128 12.1635 12.5533 13.1662 13.8702 14.8419 17.002 
21.3297 19.0578 16.9101 15.721 14.1159 13.069 12.4231 11.8822 12.0393 
12.1358 11.9952 11.9501 12.1406 12.218 12.2512 12.2923 12.5557 12.3127 
12.3241 19.0042 16.5578 15.0536 13.7755 13.0664 12.5108 12.2391 12.1714 
12.2003 34.4902 24.0988 47.9412 47.8361 43.7008 26.4694 31.5442 33.0848 
12.13 12.1334 12.1362 11.959 12.5374 13.2623 13.614 14.9223 16.3865 
18.6846 11.7917 11.8896 12.9367 13.4703 11.7289 12.0726 12.2633 12.427 
12.508 12.4258 18.096 15.3732 12.2462 12.1488 11.9051 11.8998 12.0432 
12.2336 13.1648 13.9069 14.6396 17.2453 24.9722 44.5441 38.8095 39.1102 
44.3009 54.0482 42.9717 73.2485 64.7185 22.2212 48.2812 61.9457 46.2433 
35.9691 54.8587 56.6041 39.3004 50.2533 58.3656 57.7971 57.4322 12.1401 
11.9897 12.0085 11.972 11.9635 31.7381 34.2131 41.9519 42.7375 59.4036 
43.3546 23.0485 29.1412 27.8199 50.2589 50.0935 65.3833 67.8835 68.342 
62.1921 64.4491 66.5321 62.2982 62.725 65.4055 66.0995 79.1775 70.6373 
72.7567 76.0749 47.3001 41.849 50.7512 33.5729 46.7577 36.3241 42.1628 
52.5013 44.3162 58.7001 52.8191 56.4728 56.0317 38.7852 56.0789 53.0898 
49.9133 46.1279 39.5625 52.3981 61.1127 56.9559 55.2609 58.7355 35.767 
42.9558 34.7272 42.9199 13.4292 14.0271 15.1923 13.7447 16.3101 18.406 
21.0961 24.0173 13.3268 29.9963 14.5416 38.5191 14.8475 49.1506 16.6324 
18.6159 20.4196 22.051 26.1414 55.2624 32.6785 55.6389 41.6081 55.6106 
53.8467 50.6085 51.041 54.9932 56.3596 54.6349 59.6134 57.3352 55.4885 
50.5417 56.4327 46.5889 55.0222 53.2377 64.7597 53.1817 66.6863 59.0523 
63.9516 68.3657 14.3436 14.5777 16.2944 18.2916 20.332 22.7554 26.9326 
35.1803 14.5379 15.8352 17.6234 19.7511 22.0179 25.0317 28.8503 44.4045 
40.3716 46.2903 41.7369 47.537 47.3889 42.5466 44.5362 38.5195 38.8868 
51.1224 36.5429 50.2498 15.8608 17.8717 20.124 22.6749 26.3604 37.8492 
17.4717 19.382 21.6831 23.5096 27.5013 36.0691 32.5278 31.4723 39.8715 
33.8625 30.5672 19.6621 22.9348 27.1335 22.1568 23.6686 25.6174 26.0172 
30.1645 33.4968 42.2104 30.5382 26.9262 19.2372 17.2599 14.8079 13.7945 
12.9219 12.3555 12.0557 12.2234 12.188 12.2667 12.1081 12.1672 12.0248 
12.137 12.2111 12.1647 12.1588 12.0761 11.9371 11.9362 12.0088 12.4048 
13.0096 13.6249 14.1639 15.3983 17.7184 20.2494 24.8882 22.5974 20.825 
25.0867 16.9451 16.3032 15.439 18.0349 17.7996 18.7184 19.97 20.3771 
22.1008 21.6747 24.5845 23.5273 28.2923 24.5409 30.6806 24.755 35.4062 
24.9226 39.6857 24.3304 36.1621 23.159 22.2148 21.1382 29.6713 20.3506 
23.0353 19.6882 19.3505 19.2846 16.4091 19.3561 15.1637 19.6442 14.0661 
20.2552 13.4073 21.0485 13.0617 22.0282 12.5131 23.0455 12.7461 24.3 
12.538 24.8415 12.7549 24.8827 12.9016 24.5114 12.8771 23.1994 12.7499 
21.8422 12.7345 20.4563 12.823 18.5691 12.9136 15.0542 12.7577 12.7542 
12.9733 16.9119 12.9145 17.3749 13.2144 18.1844 14.0127 19.7136 14.7553 
21.4114 15.9945 23.4262 18.1762 27.2003 23.4049 29.9097 28.7038 36.0748 
38.0904 45.6639 16.1487 43.7848 20.2929 19.7581 21.5211 22.7519 23.9523 
21.4838 26.5796 22.8479 28.7548 24.2732 31.2932 24.6087 31.5157 24.6592 
29.7728 24.1014 23.2189 22.5159 21.2752 20.5148 19.7924 22.907 19.2715 
19.1327 19.1148 16.3865 19.3127 15.4897 19.7796 14.4907 20.4399 14.0226 
21.3681 13.894 22.3583 13.7468 23.2235 13.579 24.8296 13.3428 24.724 
13.3976 24.8811 13.4562 24.0243 13.4287 22.83 13.2653 21.6268 13.2355 
19.166 13.4464 13.5153 13.3025 13.5182 13.6938 19.4251 13.801 20.9521 
14.3862 21.8615 15.4336 23.4124 16.378 25.9551 18.3819 28.6708 21.8107 
30.1987 30.6245 31.4449 21.4067 22.3357 23.7514 25.3949 26.8255 22.7419 
27.5572 23.8071 27.2973 24.2377 27.2074 24.4199 26.9343 24.207 23.295 
22.4991 21.5761 20.5021 19.936 19.3163 22.7921 18.9779 19.1604 19.0238 
17.438 19.3049 15.9227 19.8922 15.1703 20.6424 14.9098 21.5909 14.7189 
22.4359 14.5494 23.5917 14.3255 24.634 14.0796 24.8544 14.0348 24.5869 
14.1077 23.9438 14.2027 22.877 14.044 20.9119 14.0286 14.231 14.2983 
14.2695 14.4896 14.8835 21.638 15.1811 22.8558 16.0426 24.3996 17.015 
26.5679 19.0129 27.5082 21.5773 28.4663 26.0105 27.5822 23.505 24.8688 
25.8417 25.5518 25.0282 24.3343 23.5066 24.3397 23.8993 23.3789 22.395 
21.7921 20.6117 19.7399 19.3807 18.87 18.7165 19.7135 18.8928 17.6352 
19.3059 16.5523 19.8916 16.1055 20.691 15.7898 21.3627 15.4632 22.2301 
15.2213 23.6883 14.9758 24.4082 14.8056 24.8794 14.7423 24.3655 14.8773 
24.0475 15.0632 14.9315 14.8574 14.9538 15.077 15.2956 15.6592 16.0887 
16.6726 24.3244 17.6612 24.8516 19.1534 25.6109 22.9203 25.8968 25.1099 
23.5236 24.5728 24.8032 24.9196 23.5736 21.8934 24.1344 23.8366 23.1458 
22.2158 21.4534 20.7162 19.6273 19.1773 18.8182 18.5354 18.529 19.5224 
18.8496 18.3604 19.306 17.3799 19.8899 16.9413 20.507 16.5448 21.0926 
16.1179 22.3151 15.8633 23.5413 15.6775 24.281 15.5229 24.4638 15.4617 
24.5771 15.6147 15.7205 15.5585 15.6736 15.8178 16.0647 16.387 16.8853 
17.1812 18.0947 25.0855 19.5989 25.0073 21.8949 24.2904 24.2239 23.8557 
22.6331 20.9245 23.5856 22.7 21.8655 21.0321 20.3825 19.4843 18.7945 
18.3919 18.1311 18.1914 18.3069 18.5943 19.3867 19.1987 18.2645 19.5816 
17.6872 20.1336 17.0598 20.7965 16.7599 22.0311 16.5715 23.1322 16.3554 
23.9698 16.1206 24.0493 16.1569 16.2966 16.2728 16.2614 16.5311 16.8064 
17.0681 17.6151 18.1235 19.0537 19.7448 22.1335 23.2729 22.419 21.0804 
21.2925 20.624 19.9311 19.2776 18.4653 17.9747 17.7455 17.755 17.8015 
17.8725 18.4637 19.9428 18.9269 18.9415 19.1287 18.2361 19.7626 17.5791 
20.6315 17.3474 21.7592 17.0608 22.8102 16.8036 16.7535 16.8461 16.8877 
16.7835 17.2431 17.5166 17.7857 18.2014 18.8664 19.7158 21.2689 20.0181 
19.3974 18.7291 18.1452 17.7141 17.3139 17.3288 17.3645 17.3555 17.6409 
18.2025 18.4734 18.7451 19.4859 20.2134 21.158 22.9595 32.782 24.0381 
17.0362 17.8508 16.5307 18.8708 15.7306 19.8541 22.3392 18.3626 24.4515 
20.5715 27.6197 22.058 31.5134 22.9503 35.6463 24.3485 38.3952 24.808 
43.5942 24.7377 24.0853 23.0515 31.8465 22.0189 21.0253 22.0112 20.2145 
18.8598 19.64 16.6355 19.3064 14.9955 19.3006 13.923 19.6978 13.3285 
20.3651 13.1161 21.1889 13.1773 22.3192 13.1054 23.2893 13.0443 24.6154 
12.9738 25.2527 12.8856 24.665 12.8185 23.99 12.8469 23.0351 12.7085 
21.6916 12.6598 20.4195 12.711 18.3998 12.7358 15.6645 12.636 12.4089 
16.2703 12.3403 16.9579 12.7924 17.6033 13.6982 18.6153 14.3467 19.988 
15.4977 21.8153 17.404 23.9297 19.8672 27.5438 24.9173 32.9961 27.6596 
36.4466 37.5687 27.3362 41.1319 20.4018 19.762 21.1735 22.6081 24.1935 
27.1124 30.1597 21.6203 32.0187 22.541 32.7618 23.8873 24.5857 24.5596 
24.2015 23.3705 22.348 21.3487 20.365 22.6659 19.6465 19.236 19.2866 
17.0086 19.0999 15.4783 19.2791 14.5368 19.81 14.0098 20.5323 13.8008 
21.5268 13.7913 22.6687 13.6437 23.7998 13.5566 24.9169 13.4412 24.8625 
13.3988 24.317 13.4317 23.8086 13.3969 22.8521 13.2019 21.2628 13.2541 
19.572 13.4613 13.4564 13.4444 13.1986 13.6276 20.2743 14.258 21.3237 
14.8905 22.7619 15.7414 23.9748 17.6564 26.8765 20.8333 28.7781 27.4627 
30.7674 31.6747 30.4669 22.6042 21.2574 23.7205 25.1523 26.0956 27.5772 
27.9334 22.6954 27.0996 23.7309 24.266 24.3981 24.0983 23.437 22.4563 
21.6769 20.6884 19.7204 22.453 19.293 19.5641 18.9103 17.1934 19.0597 
15.9428 19.2602 15.1321 19.9588 14.824 20.6318 14.5232 21.549 14.3875 
22.5763 14.2557 23.7939 14.1547 24.358 14.1138 24.485 14.1405 24.2379 
14.1202 23.9732 13.9737 22.5512 13.8496 21.1106 14.0437 14.2468 14.2769 
14.3016 14.6861 15.012 22.6102 15.4805 23.4494 16.4848 24.8838 17.606 
26.7553 20.1862 27.539 25.0859 28.4562 28.2858 26.8979 23.5138 24.4705 
25.3797 25.6826 25.5522 23.3712 24.0951 24.1158 23.9773 23.4553 22.4518 
21.574 20.6222 19.6899 19.2361 18.8605 19.7567 18.715 17.811 18.8907 
16.8305 19.228 16.0538 19.9181 15.8481 20.5408 15.2626 21.3385 15.1146 
22.5034 14.9574 23.6778 14.8574 24.134 14.9485 24.1042 14.9828 24.215 
14.8321 24.2213 14.6757 14.6856 14.8869 15.0908 15.1276 15.5093 15.8338 
16.0421 17.1668 24.8041 18.3362 25.9385 20.1117 26.1871 23.3842 26.3374 
23.7654 22.9245 24.2891 24.8835 24.7817 23.8399 22.1799 24.2885 23.8634 
23.3587 22.3468 21.4118 20.4213 19.4559 18.9327 18.7287 18.4235 19.7425 
18.475 18.84 18.4234 17.7402 19.1767 17.1024 19.8465 16.6633 20.4498 
16.0012 21.2039 15.8122 22.4507 15.6582 23.4641 15.6659 24.02 15.6553 
24.234 15.6362 25.0151 15.5214 15.5013 15.5266 15.7268 15.9329 16.2646 
16.6903 17.1151 17.6619 19.1026 25.0334 20.6961 25.1937 23.0925 23.4973 
24.7244 23.7426 22.6836 20.7201 23.9933 23.24 22.21 21.1587 20.1151 
19.2193 18.7614 18.3742 18.2227 18.0582 17.8897 19.2639 18.3521 18.5204 
19.0468 17.9773 19.497 17.242 20.0103 16.6159 21.137 16.4882 22.2287 
16.3196 23.321 16.1865 24.7456 16.1591 16.122 16.2314 16.2101 16.4898 
16.724 16.9177 17.4061 17.8541 18.3011 19.3418 21.3559 24.3921 23.0502 
22.689 20.8482 21.8416 20.8443 19.7974 18.9059 18.3565 17.999 17.7948 
17.6169 17.4444 17.5994 19.5595 18.2503 19.1623 18.6494 18.4001 19.044 
17.6212 19.8058 17.3152 20.7972 17.134 21.7909 16.9405 22.6512 16.758 
16.6016 16.4972 16.863 17.0237 17.4114 17.6862 17.9917 18.6012 19.2988 
19.5387 21.1191 21.1913 20.3027 19.5098 18.5726 17.9096 17.6205 17.3814 
17.1794 17.0024 17.085 17.4426 17.8789 18.2557 18.6213 19.3314 20.2353 
22.7596 20.797 25.9767 39.4048 20.5648 16.5602 14.4079 13.4102 12.6886 
11.9519 11.944 12.1239 11.9244 11.8068 11.8839 12.343 12.2815 12.1661 
12.0235 12.0183 12.0011 11.9483 11.9811 12.0527 12.1165 12.4504 13.1171 
14.3847 13.7244 15.0308 18.2381 21.0593 25.2005 12.3024 30.4367 20.9046 
17.1937 15.9547 15.0121 13.9145 12.9709 12.2301 11.9696 12.1262 12.0858 
11.9484 12.0852 12.2797 12.1989 12.4638 12.2322 12.1935 12.2133 12.0551 
12.2256 12.1147 12.2374 12.0396 12.2816 12.0242 12.2538 12.1853 12.095 
12.326 12.0905 12.1914 12.5073 12.181 13.1108 12.1808 13.7632 14.5404 
16.038 18.6733 27.5855 32.0944 32.8096 21.6737 26.3672 21.5738 16.2832 
15.1057 13.9396 13.2009 12.5939 11.8272 11.5768 11.9493 11.9319 12.1596 
12.3247 12.3741 12.3547 12.3242 11.964 12.0445 12.1263 12.2419 12.2363 
12.2336 12.1233 12.2049 12.8028 13.4402 13.8465 15.3399 17.2329 19.9951 
25.0319 22.2957 17.8649 21.8651 16.9202 26.487 15.0361 13.7605 13.1133 
11.7979 11.7698 11.9696 12.1693 12.3177 12.2328 12.1021 12.1008 12.293 
12.278 12.189 12.1134 11.9661 11.8937 12.0105 12.0274 12.8397 13.6949 
14.4941 15.8183 18.8149 24.1768 11.8591 33.6614 24.4945 16.1474 24.5156 
32.224 14.6487 13.6246 12.8 12.1895 29.3856 12.1045 12.2021 12.214 
12.1118 12.105 12.1274 12.3556 12.2181 12.1315 11.9767 11.9397 11.9767 
12.0796 12.098 12.0503 12.5106 13.6976 14.548 15.2552 12.1244 17.2199 
20.583 26.8171 35.3446 25.0457 14.8584 21.6054 16.132 18.1468 18.7893 
12.01 12.1037 12.1823 12.1692 12.115 12.2471 12.7424 13.4051 14.106 
15.6902 17.2088 19.9427 11.8724 47.9301 43.7617 49.5866 48.3797 17.3088 
28.153 15.0072 13.4507 12.577 11.7035 12.0733 12.1608 11.9622 12.0627 
12.4411 12.3628 12.2419 12.1261 12.0501 13.1932 11.8729 12.015 11.9982 
24.2042 23.207 48.5771 19.264 26.515 26.7661 15.5741 14.3261 13.6373 
12.7224 12.2412 12.0818 11.9497 11.8412 11.9829 11.9941 37.0561 64.0532 
62.9162 70.1986 60.3373 42.983 56.4109 33.1778 48.2173 28.0372 51.1249 
23.8088 52.6071 20.1321 55.4892 18.3708 53.9774 16.9334 56.9023 15.3549 
54.016 14.7254 52.5613 14.5976 13.3124 54.0148 58.2559 54.0832 14.6072 
48.4761 14.8643 50.3699 15.8434 52.7951 17.2369 18.9567 21.3897 53.4565 
23.9188 49.7298 29.0654 52.8434 34.725 58.6007 51.6016 42.7656 31.2038 
26.8726 42.9147 22.4569 44.0214 20.0953 18.4018 45.9055 16.848 14.8712 
43.619 14.8654 46.2693 48.9686 42.7983 45.4266 14.962 16.6108 18.9104 
49.8975 21.1602 23.8635 44.6036 26.9566 42.0013 33.4981 31.067 25.48 
22.2444 36.8871 20.4598 18.9055 16.7981 35.0641 34.1922 35.8614 39.7498 
18.966 21.2071 23.7221 26.8085 30.9144 30.5417 24.4349 22.7892 28.8649 
21.049 30.2061 23.5438 26.6532 29.2463 25.0606 36.8649 46.0823 38.6053 
37.8778 62.9576 55.3682 31.9811 38.7477 43.9012 45.305 38.31 28.8612 
45.1158 29.6617 28.0531 42.1676 35.0351 24.3961 26.5571 37.6374 37.3907 
21.3141 19.7311 23.1672 35.7855 30.0963 36.217 34.4966 38.144 37.6076 
25.0925 17.9475 20.4375 16.4331 16.7685 31.481 30.8453 27.9436 23.7973 
30.2396 33.771 36.176 38.9747 15.4756 16.6079 21.265 27.9514 15.4996 
15.696 18.8025 28.2489 31.6458 27.4323 25.7415 18.9236 22.3035 29.931 
32.9428 36.7733 37.9471 38.9279 14.5738 14.8978 23.0203 14.647 14.0991 
14.3202 30.1318 29.4131 25.7934 22.6546 16.7677 19.2389 22.0496 26.2119 
30.2311 32.7092 38.1532 13.6568 14.1466 14.6549 17.5547 28.4324 36.6584 
13.7586 13.4296 13.3148 23.0406 26.473 28.594 26.8146 20.919 15.5061 
17.2625 19.4506 21.9922 22.5747 25.8339 29.8614 33.9654 43.8377 40.8871 
42.53 13.1002 13.4121 14.5726 16.3748 27.104 14.9806 12.8095 12.9191 
13.0914 19.624 24.2812 26.9938 26.48 17.9055 16.2038 14.8221 17.9375 
24.9192 22.4837 24.0489 19.5712 26.3716 29.6607 33.9142 45.3407 13.1951 
13.259 13.831 28.1088 41.3229 12.8556 12.8656 18.4886 22.8978 25.5409 
26.2455 17.193 15.5117 16.8737 14.2427 18.8113 20.3716 24.0593 22.1513 
25.39 20.4762 25.0865 27.1236 29.6544 35.0417 42.2298 38.0888 12.7645 
12.9792 12.9338 13.1501 13.7598 16.7644 25.4353 32.3057 12.8149 12.8103 
12.6202 17.7244 23.8269 21.1265 25.0462 18.1245 15.0747 16.1438 17.4818 
20.4813 24.0917 23.4834 24.7044 18.4114 17.3614 33.8604 36.4343 40.211 
39.2947 12.7302 12.6472 12.7621 12.9122 12.9501 32.0627 21.8135 16.3568 
15.9017 17.0688 13.5558 24.3686 22.3407 20.9478 22.2991 19.0896 24.9668 
30.5495 35.0053 37.6359 42.102 38.3387 12.661 12.6379 12.5217 12.7271 
12.8606 12.9378 14.3609 13.6098 23.0017 12.6909 12.9475 16.6725 22.3507 
15.4439 14.5125 16.5433 17.7489 13.6211 19.3449 23.994 21.7772 23.2262 
24.4985 43.2007 12.5884 12.5474 12.8988 12.9199 13.1428 12.9807 12.4785 
20.7979 27.7309 12.6578 20.9119 19.0027 16.2297 15.3322 14.4751 13.627 
18.2776 24.5039 24.369 23.8509 23.7135 24.2862 22.2861 20.9177 33.1465 
33.0445 12.6637 12.6547 12.6353 12.8361 12.7802 12.78 12.664 12.72 
22.6912 16.0451 15.0944 14.3307 13.4757 18.0815 24.708 24.5642 22.8798 
20.563 18.5592 24.0333 24.0625 24.544 27.804 28.6656 25.5137 23.8681 
22.6825 29.1221 28.4964 26.5719 12.7457 12.6928 12.7635 12.5475 12.6331 
13.3954 20.1967 12.7247 12.6767 12.7868 12.6112 21.7566 15.8785 16.794 
15.0211 14.152 13.2639 17.794 24.7394 24.7539 21.7963 22.9008 20.5978 
19.801 18.1941 23.4784 26.3046 26.0646 25.4216 25.1528 24.2832 23.0658 
22.2919 24.0963 12.7541 12.7639 12.7777 12.6537 12.6226 12.5886 15.1388 
16.3512 14.6393 19.9624 12.6532 13.8851 12.8301 12.8162 12.7171 12.659 
16.5192 15.051 14.1762 13.4621 17.4169 21.9798 20.8435 19.9685 18.4647 
17.6878 25.0739 20.9372 24.7618 24.3789 12.9083 12.9963 12.8385 12.7606 
12.6982 15.5463 13.8042 14.705 12.5684 12.4113 12.7956 12.7133 12.8686 
16.6606 15.0694 14.2185 13.5313 20.8203 20.2538 19.4026 18.6566 23.7761 
24.4726 21.998 20.9658 24.294 13.1455 13.1725 13.0296 12.8305 12.7475 
12.8981 12.8135 12.6481 13.5242 16.2463 15.8766 14.4392 15.4626 12.5724 
12.7199 12.8415 12.7238 12.8968 24.6512 15.6619 16.2317 15.1337 14.244 
13.4111 20.1272 19.4367 18.7153 24.5198 24.184 21.8333 19.9834 24.42 
13.1534 12.9008 12.8211 12.71 12.4751 13.3496 14.2322 17.5282 17.0389 
15.1555 12.9185 12.7172 12.5873 12.9835 24.4055 15.6532 16.2058 15.0521 
14.2945 13.518 16.7934 23.11 22.1255 19.2892 18.9633 18.2264 17.5274 
20.922 23.5709 23.0235 20.6169 18.701 12.7461 12.7535 12.6813 12.7568 
12.734 13.5509 14.2739 15.1312 15.9553 16.7717 12.6305 12.9507 12.776 
15.1298 14.3087 13.565 17.0706 22.1949 21.1558 19.2888 20.191 19.0527 
18.7778 18.4778 18.3726 17.6692 20.1999 22.0646 20.6486 12.7023 12.6289 
12.7241 12.7224 12.8391 12.5462 12.8355 12.6926 13.6926 14.2443 14.9889 
15.7856 18.1494 17.5918 16.545 17.2278 12.8073 12.7677 12.833 12.8005 
15.7861 16.421 15.11 17.2889 21.2554 20.2204 19.617 19.1062 18.9364 
18.9259 18.838 18.519 18.268 19.5055 21.7297 20.9505 12.8182 12.7779 
12.8187 12.7244 12.9622 12.9531 12.8945 13.5463 14.359 15.6331 16.3761 
18.6471 18.0236 16.8948 17.5094 12.7494 12.7657 12.544 13.2772 12.6977 
15.8486 15.1361 14.3029 13.6455 20.0165 19.1995 19.0689 19.0694 19.2332 
19.3324 19.2729 19.18 19.0105 18.7675 18.2348 18.7449 19.7659 12.8906 
12.8692 13.0023 12.986 12.9138 13.0862 13.0316 12.8422 12.6764 13.2825 
14.3956 15.7326 16.2687 18.9074 18.2979 17.8734 12.9328 12.9204 12.6253 
13.6952 12.8517 16.0694 15.2715 17.757 18.907 18.7608 18.5531 19.7274 
18.2959 19.8103 20.0286 19.8795 19.5198 19.3073 18.9814 12.99 12.8119 
12.7842 13.0416 12.673 13.5027 14.1558 15.1544 15.8651 16.4163 17.1018 
14.3778 13.4225 17.131 14.1057 18.1147 19.0739 18.7804 18.4972 18.1786 
20.2821 20.6727 21.1317 21.0476 20.6337 20.3358 19.8529 13.419 13.1328 
12.9798 12.6212 12.808 12.7217 13.2023 14.381 14.9908 15.7701 16.5542 
17.7891 17.4116 14.2776 15.1801 14.5344 13.7818 17.3146 17.686 15.2823 
14.2315 18.8429 19.6036 18.9866 18.5454 18.1032 21.3801 21.6943 21.8323 
21.6516 21.5033 21.274 20.6133 13.3546 13.3932 13.2294 13.9847 14.9606 
15.6283 16.3171 16.9276 17.7894 17.3794 15.9362 14.9867 16.8072 14.3192 
18.4304 15.9948 15.1451 19.5214 20.1987 19.5212 18.9849 18.4165 22.1215 
22.5103 22.4686 22.4115 22.2318 21.5748 14.3118 13.9566 13.7601 13.5729 
13.4765 13.6889 13.4193 14.07 14.5325 15.1303 15.7805 16.4113 16.8713 
17.9729 17.7576 17.5355 16.3829 18.5834 21.7878 16.222 16.1021 15.711 
17.6929 16.9279 20.3981 20.2659 21.2694 19.5444 22.8772 23.6178 23.3828 
23.5799 23.3955 23.2441 14.8914 14.6802 14.8463 14.0137 14.3111 15.3615 
16.0905 16.7716 18.7539 20.7048 18.3305 18.2987 20.9011 23.2627 24.3185 
28.2847 17.2106 16.4119 20.6076 19.5718 18.6165 22.1407 23.3058 21.718 
20.4835 24.3825 24.3404 24.49 24.3003 15.3488 15.7543 14.4429 15.234 
16.2113 14.8719 16.1239 16.4519 17.0675 17.8404 19.0345 18.7286 25.9387 
21.4681 21.4758 22.1208 25.2869 24.6085 29.3905 29.8259 31.4038 20.8737 
19.1487 22.2445 23.9951 24.8831 22.6641 21.0265 24.6439 24.6197 24.5814 
25.1502 16.9277 15.1406 15.8756 16.7237 17.4516 16.8065 17.7457 18.0071 
19.6226 19.2409 26.5419 34.6139 24.4311 26.0044 35.5549 30.588 32.997 
40.5747 22.7554 24.8495 25.0884 23.7777 21.8437 20.4868 24.7693 24.4521 
24.2542 24.2187 24.4322 15.6975 17.3939 18.8284 19.3589 19.841 33.3484 
30.1086 27.2474 30.4342 39.6177 42.8671 35.7909 25.6291 28.1455 29.6235 
25.8437 24.8586 22.883 24.7182 23.9964 23.6858 24.0388 23.5568 19.2621 
17.6386 18.7261 20.4793 21.4231 20.9755 37.0219 34.1605 32.4388 39.7665 
38.2418 35.217 26.1462 24.5467 23.0826 23.3555 24.624 24.6857 22.698 
22.0446 22.4193 21.6268 20.8408 21.0824 21.3591 21.1396 21.5421 26.7456 
30.2207 28.2534 22.7135 24.2951 36.2443 37.0999 40.0942 38.5981 38.0068 
22.4264 20.682 19.379 24.1949 24.0107 19.9237 24.4317 24.6149 24.3887 
23.7861 23.1402 24.2953 37.393 34.226 34.7956 37.4306 37.7194 34.5509 
38.817 34.9288 37.1116 41.3428 16.1327 23.2317 19.6537 15.6856 29.3755 
37.1902 40.0474 29.9017 26.6926 25.467 24.8654 25.4965 29.0568 31.8084 
24.711 22.8304 33.2494 33.0227 30.8277 34.0124 24.3901 23.2547 22.0356 
32.4323 29.03 28.2171 26.9662 25.1229 43.9289 24.4752 19.6994 27.7488 
36.8789 31.976 36.6482 18.3957 18.3668 16.986 20.0799 18.16 26.4503 
23.8528 25.9591 26.0346 23.2281 23.5587 19.8713 28.1802 23.4153 33.8755 
36.7018 26.8562 19.7648 17.442 17.0873 18.8656 21.3641 19.7936 21.2738 
22.7639 25.0326 20.0049 19.5112 21.5304 41.7178 33.4202 42.4649 31.4959 
28.4938 31.6445 30.6177 42.8596 35.8767 41.3383 53.4051 42.2037 21.5788 
27.3077 30.257 22.809 19.8805 27.5336 17.9283 19.983 24.3889 16.2966 
24.8582 28.164 29.3393 15.5811 16.9879 20.8027 15.1946 27.2428 20.0954 
23.4042 28.4043 27.9645 14.628 23.6346 17.6667 14.6452 25.5538 27.7836 
18.8826 23.7097 24.1571 26.3326 28.9237 29.1004 14.2826 19.0282 13.5838 
24.3637 25.1073 22.0138 31.2225 13.8663 14.2418 14.5451 15.3674 13.4814 
25.1399 17.9112 23.7798 24.381 30.2544 13.6069 14.1193 13.8525 17.9053 
15.8747 18.3408 24.3521 23.5209 24.0139 14.1069 13.8289 23.0337 14.9282 
16.9668 23.0042 13.4349 13.6775 14.1042 13.6281 13.6384 13.4371 13.8931 
13.424 19.8569 13.6746 13.3082 13.6124 13.3901 14.3654 21.3507 19.1628 
18.1992 25.716 13.8702 13.6858 13.4161 13.3516 16.0623 15.3091 19.8645 
25.9703 23.7819 13.7553 13.5136 13.7301 13.5341 13.326 13.2446 13.3873 
14.8175 24.3864 21.4459 14.1994 13.7846 13.6348 15.0263 13.6393 13.8605 
16.1475 14.5434 19.1339 14.1471 13.2907 13.9225 13.404 18.3314 14.3124 
13.6463 16.857 18.6212 17.4259 22.3205 13.9975 13.7566 13.6597 14.3785 
15.6787 13.5324 14.5511 20.5126 18.9628 13.759 13.6719 13.4845 15.7492 
16.908 13.878 14.1135 16.7465 15.5078 17.6513 19.7165 21.9807 21.3862 
19.2654 13.7037 14.0058 13.9711 17.1311 14.625 16.4297 20.0451 18.9905 
18.7427 20.4223 14.1835 13.9766 13.8885 18.4642 16.9963 18.0736 14.7196 
18.7193 14.4211 13.7953 14.716 15.8307 16.5982 15.284 14.8674 18.0688 
20.6902 19.5028 14.3467 13.1874 14.5013 15.2161 15.3749 17.1306 18.1181 
19.551 15.6614 14.794 14.3768 15.4574 16.417 17.1109 16.9809 17.471 
18.2952 21.7609 14.7413 15.1122 17.4811 17.7254 17.9836 16.3964 23.3875 
21.7529 15.9059 15.4174 16.0033 16.4383 23.1196 21.3796 29.4397 20.7403 
19.4702 18.3777 23.5974 22.8305 16.5689 13.8954 15.2914 16.9288 20.3718 
26.187 28.2358 22.8815 20.5852 24.3371 24.2123 16.3414 18.4711 17.1121 
19.232 18.5127 27.9975 23.7284 23.961 20.6877 17.7212 19.9313 26.6845 
27.3025 22.9886 24.6485 21.5083 19.1931 19.2643 26.604 22.9247 19.6594 
29.2903 22.1653 22.0525 23.5652 23.7262 29.3851 24.4709 27.8766 24.8002 
28.2743 28.59 28.4757 27.9821 27.8051 47.9423 27.0579 16.933 21.089 
24.36 20.2944 17.4469 21.4102 23.2868 19.702 16.3807 15.5835 16.5362 
16.4745 18.4789 14.9058 15.5103 18.3179 15.687 15.0911 15.1803 15.1052 
15.437 16.652 15.5193 15.3873 15.1301 15.0304 14.5833 17.0105 16.0819 
15.5349 15.3216 16.8947 15.6435 16.302 16.8985 17.1612 17.6873 16.6495 
16.1006 17.0801 19.2702 17.307 17.9271 20.083 18.7502 16.2462 21.2278 
19.5458 23.4914 24.6787 17.8528 17.1481 14.8695 15.8051 16.1821 15.7399 
17.4287 21.1112 14.9926 28.5238 24.2662 18.7929 17.9819 22.218 18.4678 
21.9868 13.2024 12.9054 17.5878 14.1247 13.2899 17.1158 16.0659 24.6663 
13.351 19.9316 26.0923 20.5868 20.6892 18.3 19.9554 14.4118 12.9294 
18.4554 12.7271 21.001 17.0108 15.764 15.5354 17.4717 21.7919 12.764 
15.5597 14.4733 31.3776 52.0678 17.6822 12.837 25.5203 13.0062 17.5859 
16.2535 13.7142 24.6792 18.4372 20.3018 12.7388 20.2496 12.7187 21.0197 
13.5843 15.797 12.5898 14.0079 18.0512 17.3023 14.2375 17.2933 12.6636 
18.5174 22.2384 14.3147 38.1828 25.8533 12.9393 35.4989 12.9021 17.157 
16.0583 18.1296 13.5088 14.721 12.6378 12.7793 20.0194 16.1188 23.7859 
18.0082 14.5395 12.8956 16.7917 17.6555 15.0508 13.0462 12.9435 19.2804 
19.9222 13.1595 15.1799 22.2144 28.1947 14.8617 12.8082 13.0038 17.6112 
23.2128 19.0283 18.7684 18.0606 15.2042 23.2485 23.8111 14.2853 24.1929 
16.779 21.9407 16.7349 13.8331 15.7108 12.8905 18.3557 19.1064 25.725 
23.2518 19.2991 17.2889 13.0287 16.0796 12.4271 17.8144 20.637 18.351 
17.3605 12.6438 18.5883 18.2847 29.6384 25.1988 15.829 18.7979 45.2186 
50.3373 18.5785 16.6527 28.0236 23.7736 18.744 25.7724 16.3037 16.528 
16.3733 20.6944 19.6072 14.7691 12.8489 17.5231 22.7413 19.8202 14.7486 
12.7172 23.2182 14.6995 13.4857 16.5942 17.9477 19.7586 12.6211 29.6985 
20.1396 30.0769 17.1472 13.0293 18.5992 12.8 24.3376 16.0651 12.6825 
21.3494 12.7166 13.0893 14.4498 24.397 50.0738 41.8856 64.9204 63.7534 
48.0449 70.2248 61.3229 16.2646 56.1356 52.9786 58.8662 49.309 50.8424 
48.2769 62.1186 63.1002 64.8572 68.0357 54.2907 52.8238 50.3301 48.8244 
33.3764 56.3847 45.1881 47.7693 58.8466 49.5599 47.7876 49.4514 48.7067 
58.9651 53.2889 14.3498 54.0567 43.9142 69.3723 54.0659 48.9067 18.5568 
14.4016 14.4179 52.016 56.0392 51.6859 54.8531 56.0147 58.7732 52.2131 
53.9325 12.4663 26.6977 14.2882 46.7364 22.6993 58.6361 52.3678 17.1717 
12.4478 52.3757 12.356 24.0254 16.0883 16.164 39.9515 49.9734 12.2068 
13.6939 12.619 25.282 39.9644 44.3383 24.7117 12.624 14.6783 12.9927 
28.7478 52.4979 17.9686 33.1713 12.4033 23.0733 14.7882 19.5139 45.9726 
13.0131 12.3843 12.4672 12.628 21.7264 37.1019 12.7366 12.4921 12.6965 
14.1956 15.6382 13.208 14.1518 12.1185 22.4981 12.3703 15.414 24.6853 
16.551 40.4821 14.7257 19.6801 21.6574 20.3737 15.6155 13.9474 12.2188 
12.2802 20.0108 27.5792 15.1718 16.9417 22.4448 25.724 22.7521 20.7697 
27.7606 19.6472 12.4123 23.7227 23.8043 25.1275 19.8732 24.7793 21.5245 
24.3228 24.7826 24.7546 23.9382 50.9246 13.052 28.1193 12.3481 12.6074 
12.6555 20.4741 12.5841 12.4215 12.4885 12.4633 22.5268 19.4022 22.5399 
11.7991 22.8177 12.1817 20.6259 19.2898 19.4753 12.5629 21.5 16.9301 
16.0011 18.0003 20.1723 23.5238 21.1096 30.6264 15.1311 23.9158 15.5237 
16.7499 18.2617 16.7879 12.4077 16.0403 18.6795 36.7431 57.709 70.6986 
17.2966 15.4722 56.8869 72.2069 56.203 14.5733 57.3612 14.2689 37.8468 
55.8167 41.5626 50.8594 46.5157 53.1582 55.4211 37.5314 45.8984 56.1228 
51.7492 46.1032 25.6759 36.7386 49.8178 55.2704 54.0054 15.486 58.6076 
54.1026 45.8555 49.693 13.3336 45.5966 12.6415 34.9249 51.9129 19.6665 
58.7674 59.7829 19.5869 42.0798 12.7276 58.7452 26.3629 53.0423 32.3841 
55.1909 12.1106 19.6828 23.1517 21.0769 22.5215 54.55 39.5514 12.4444 
12.6254 12.9584 37.0462 12.4737 37.5949 29.9854 16.4886 43.0427 12.4905 
24.3568 14.5354 24.1926 20.5822 14.6406 15.7434 14.7105 17.8002 12.2327 
12.5563 13.5752 15.6023 12.8448 12.2404 12.6655 12.6353 12.6785 12.3407 
12.4936 13.6241 12.4098 12.4795 12.5197 21.7003 13.4346 23.0569 12.3633 
12.3501 12.3821 18.4362 47.1456 12.6402 24.8089 19.64 19.3306 21.0381 
18.5954 12.4893 13.3165 13.9385 19.296 21.9978 23.0783 23.2817 24.4356 
24.224 24.8479 24.7246 25.0731 24.534 20.2348 22.0228 21.6216 22.286 
20.3869 57.6632 49.9431 52.1353 15.9529 63.7 51.6435 57.6741 14.6845 
47.3697 48.278 16.819 14.2153 13.9572 20.5773 15.3825 
METADATA
INFORMATION 0

DISPLACEMENT 3 3625 double
0 6.71613e-14 -0.0300678 1.13281 2.40232 -0.0325959 1.9004 2.09531 -0.0309777 
1.00948 2.5925 -0.0324568 2.21753 1.66867 -0.0320315 0.351988 2.6572 -0.0317008 
1.96623 1.90016 -0.0317302 2.34704 1.35506 -0.0322486 -2.63832e-09 2.68948 -0.0319763 
1.7632 2.18576 -0.0319887 1.48358 2.42783 -0.0310716 0.663825 2.61801 -0.031471 
2.31798 1.55025 -0.0311301 1.91797 3.35007 -2.68022 0.874317 3.53207 -2.13358 
2.5865 2.4897 -2.01832 2.93601 2.17812 -2.17912 1.69193 2.79651 -1.26688 
2.93618 1.69519 -1.5994 1.91298 2.37742 -0.802241 0.378421 3.06896 -0.88505 
1.23126 3.16612 -1.58118 0.495745 2.56286 -0.0322649 2.4824 1.55159 -0.546001 
0.788256 3.13907 -1.24174 1.77822 3.05527 -1.93728 1.05933 2.7137 -0.502123 
1.81759 2.55791 -1.03923 1.17483 2.55973 -0.339337 2.19199 2.1354 -0.840963 
0 3.35432 -1.49013 1.65116 2.47812 -0.633822 2.61906 1.51211 -0.774433 
0.183833 3.01203 -0.785674 1.55196 2.20726 -0.0321411 2.43548 3.0273 -2.71909 
2.16433 2.34563 -1.13058 2.83444 2.38276 -2.31318 1.34633 2.82672 -0.983057 
1.47903 2.67813 -0.784512 2.682 2.00407 -1.48819 3.21145 2.35823 -2.99243 
2.53293 2.1229 -1.39585 0.790887 2.52154 -0.031888 0.428679 3.57494 -2.07397 
2.00105 2.95855 -2.03587 0.939698 2.96391 -0.955169 2.23448 1.90663 -0.617339 
2.07537 2.58758 -1.4158 0.552362 3.06634 -0.961253 0.253495 3.21242 -1.1923 
1.27213 5.33235 -10.9319 0 3.00109 -0.622595 2.49921 4.18686 -5.9253 
3.31949 3.18701 -4.83786 2.73967 1.70109 -1.23664 4.28015 3.30856 -9.7199 
3.7219 3.7129 -8.15476 3.51446 2.57668 -4.04758 2.43279 2.66107 -2.06968 
1.99023 5.05013 -10.0171 1.75081 2.33655 -0.431758 0.684588 5.48731 -12.2953 
3.93027 3.87638 -11.9262 2.62462 1.76739 -1.10158 2.78243 4.73778 -11.2692 
1.62288 3.39736 -2.47663 2.05527 2.12159 -0.538191 0.741128 2.93599 -0.697318 
1.22932 5.40152 -12.6568 0.813035 5.50478 -14.8247 3.54164 4.28423 -13.4053 
1.10829 5.45715 -15.1424 4.06289 3.81725 -15.0248 0 3.38476e-13 -29.97 
2.02114 1.73298 -29.9677 0 2.8546 -29.9689 1.94481 1.9018 -29.9685 
2.25188 1.30012 -29.9676 1.55122 2.20831 -29.9684 1.10927 2.40554 -29.9675 
0.809413 2.53517 -29.9681 1.29759 2.39624 -29.9682 0.492805 2.71428 -29.9684 
2.37172 1.98753 -29.1196 2.88929 1.66812 -28.5816 0.587227 3.43153 -28.2081 
2.41023 1.65719 -29.3545 1.42107 2.23891 -29.9679 2.63998 1.52419 -29.1345 
2.60594 1.96358 -28.646 3.77102 2.80891 -24.815 2.61758 1.78465 -28.8618 
1.92123 2.68582 -28.6439 1.51699 2.79365 -28.9168 1.83518 2.90781 -28.349 
1.74495 2.16237 -29.9683 1.28278 2.6749 -29.3976 0.545497 3.1047 -28.958 
2.75197 2.67073 -27.4191 1.06285 3.32136 -28.2182 0 3.13624 -28.9574 
2.24563 2.19445 -29.0983 1.00273 2.60997 -29.9684 0.694329 2.71991 -29.9678 
1.35053 2.327 -29.9687 0.331317 2.719 -29.9689 2.12751 2.63394 -28.4846 
1.15154 2.70334 -29.446 2.20874 1.66891 -29.9673 3.11764e-18 3.63708 -27.8395 
0.125428 2.63869 -29.9675 0.139242 2.94101 -29.3347 2.96956 3.85907 -24.1043 
0.72931 2.93704 -29.2863 1.74095 3.22581 -27.81 2.54572 2.11807 -28.6028 
1.77305 2.50114 -29.1924 2.33377 1.79475 -29.2901 0.925017 2.89324 -29.2515 
2.74863 3.58167 -25.4958 2.41515 2.59675 -28.0924 0.176999 3.31089 -28.5488 
0.28289 3.05294 -29.1105 2.80747 2.29565 -27.89 1.10779 2.83484 -29.1972 
2.01797 2.25965 -29.367 0.227536 2.6013 -29.968 2.21943 3.03617 -27.6104 
2.1063 1.45946 -29.9677 2.87865 1.95833 -28.1884 1.89478 2.38 -29.1958 
2.1452 2.39583 -28.8778 2.50002 1.5844 -29.3272 0.41496 3.13906 -28.8733 
1.63242 2.56569 -29.212 1.28804 2.94119 -28.8272 1.19262 3.14327 -28.5082 
0.82484 3.37613 -28.2131 2.61522 4.90379 -16.8662 3.66376 4.0793 -19.1711 
0.920016 5.4289 -18.6556 4.28074 3.07818 -21.8366 2.51198 4.82579 -20.0634 
3.20637 4.40157 -19.9847 3.97938 3.8203 -18.3564 3.79197 3.8709 -20.2097 
3.24244 4.46807 -18.2754 1.05466 5.46622 -15.9723 3.3376 4.44778 -15.932 
1.04664 2.53519 -0.0324987 1.09798 2.45603 -0.0325566 0.925521 2.56524 -0.0322383 
1.18465 2.39518 -0.0322049 1.28109 2.38453 -0.0314165 0.720771 2.57477 -0.0316579 
0.586732 2.59271 -0.0318351 0.420345 2.61234 -0.031969 1.65749 2.19652 -0.032065 
1.83017 2.14161 -0.0314952 0.0813329 2.68995 -0.0327432 0.208566 2.68124 -0.0339138 
1.93508 1.99249 -0.0313742 2.04956 1.8318 -0.0321753 2.12319 1.76556 -0.032329 
2.10487 1.21524 -0.031947 1.7788 1.02699 -0.0313356 1.52751 0.881904 -0.0309647 
1.2994 0.750207 -0.0306936 1.1043 0.637564 -0.0336405 0.916923 0.529383 -0.0372686 
0.747042 0.431303 -0.0303336 0.594436 0.343196 -0.0302099 0.451574 0.260715 -0.0301295 
0.32312 0.186553 -0.0300907 0.186795 0.128785 -0.0304568 0.0975878 0.0563421 -0.0299951 
2.33359 1.44542 -0.0317308 0 0.107899 -0.0299957 0 0.222543 -0.0300271 
1.08491e-18 0.35225 -0.0300832 -1.92252e-17 0.488686 -0.030123 0 0.641265 -0.0301589 
0 0.80557 -0.0302163 0 0.994292 -0.0304156 0 1.18312 -0.0304345 
0 1.39856 -0.0305921 0 1.63123 -0.030797 0 1.8841 -0.0310109 
0 2.19418 -0.0317611 -1.49312e-09 2.49677 -0.0319468 3.71367 2.74382 -4.9417 
3.90097 2.91992 -5.94879 4.01776 3.03688 -6.76853 4.12199 3.14169 -7.72865 
4.20629 3.22701 -8.71986 4.32838 3.33362 -10.7227 4.37328 3.35287 -11.727 
4.40526 3.34603 -12.7586 4.43974 3.33594 -13.7887 4.47509 3.32438 -14.8191 
4.47937 3.29848 -15.8526 4.48278 3.27027 -16.891 4.43365 3.23182 -18.0222 
4.4563 3.20922 -18.9196 4.41815 3.17602 -19.9167 4.35126 3.12805 -20.885 
2.76072 1.5939 -1.14297 4.1073 2.98717 -22.9404 3.89889 2.94729 -24.0031 
3.55719 2.70564 -25.5943 3.32857 2.58967 -26.3644 3.06226 2.44288 -27.1649 
2.84383 2.12333 -28.0424 3.08797 1.78283 -28.031 3.3658 1.94324 -27.2358 
3.64202 2.10271 -26.3853 3.89025 2.24683 -25.5385 4.08742 2.35986 -24.7097 
4.25332 2.45564 -23.8658 4.40444 2.54289 -23.0002 4.52652 2.61337 -22.1068 
4.61906 2.6668 -21.1796 4.69166 2.70872 -20.2335 4.7437 2.73987 -19.2558 
4.7849 2.7632 -18.2604 4.80048 2.77154 -17.8896 4.81558 2.78026 -16.2253 
4.82485 2.78562 -15.2032 4.81971 2.78265 -14.1747 4.80059 2.77161 -13.1459 
4.6924 2.89233 -12.084 4.74416 2.73903 -11.115 4.69372 2.70991 -10.1318 
4.64503 2.68285 -9.19356 4.54613 2.62469 -8.23212 4.43625 2.56126 -7.263 
4.30733 2.48682 -6.44286 4.14329 2.39212 -5.57918 3.95475 2.28327 -4.73694 
3.7304 2.15373 -3.90684 3.49258 2.05779 -3.17325 3.12211 1.80254 -2.10147 
2.61256 1.86183 -28.7687 2.73985 1.73221 -28.7357 0 3.14272 -0.970457 
0 3.10764e-15 -0.322393 -2.06041e-17 7.47436e-16 -0.729859 -4.20103e-17 1.41498e-15 -1.23624 
0 1.44319e-16 -1.86352 3.64801e-33 1.05908e-16 -2.61767 0 6.07442e-15 -3.50371 
0 4.91982e-15 -4.55909 9.73414e-20 1.04556e-15 -5.67275 6.57319e-19 3.33503e-16 -6.91093 
4.52258e-19 5.26093e-16 -8.22999 -8.30673e-17 8.85059e-16 -9.56556 0 2.13902e-15 -10.9208 
0 3.9251e-15 -12.2826 0 1.22524e-14 -13.6294 0 1.66927e-14 -14.9743 
0 1.56502e-14 -16.3228 0 1.11014e-14 -17.6775 -1.60363e-17 4.74678e-15 -19.0302 
4.33481e-17 1.71484e-15 -20.3813 -1.16342e-16 3.06449e-15 -21.7308 -4.09052e-17 5.9941e-15 -23.0463 
-1.28713e-17 1.22554e-14 -24.2828 0 5.7904e-15 -25.4753 0 3.33571e-15 -26.5002 
6.52294e-18 3.11915e-15 -27.3739 -3.4373e-18 9.69177e-16 -28.1452 1.34782e-18 8.27307e-15 -28.7629 
2.16803e-17 5.53455e-16 -29.2798 3.06895e-18 4.22366e-16 -29.6779 6.38139e-19 3.9971 -26.974 
-1.05585e-18 4.30056 -26.1123 0 4.5602 -25.2308 -1.08155e-17 4.79806 -24.3935 
-2.91735e-17 4.98456 -23.5211 3.93118e-17 5.14822 -22.5735 0 5.2654 -21.6852 
0.000750742 5.36468 -20.7257 1.63261e-17 5.40818 -20.0796 3.43591e-17 5.49381 -18.731 
6.02525e-17 5.54101 -17.7128 -9.39248e-17 5.56383 -16.6521 2.34768e-17 5.5746 -15.5736 
0 5.56422 -14.5156 0 5.54963 -13.4651 0.116814 5.52371 -12.398 
0 5.47639 -11.4115 0 5.42584 -10.4071 1.68866e-17 5.36748 -9.40744 
8.7484e-17 5.2848 -8.43358 7.20396e-17 5.15331 -7.51154 2.47052e-17 5.00473 -6.6163 
0 4.82859 -5.73101 5.23137e-18 4.60212 -4.87049 3.28343e-17 4.34701 -4.02084 
0 4.04419 -3.16358 0 3.66581 -2.23304 2.27013e-17 3.33842 -28.5062 
0.00115883 0.110027 -29.97 0 0.234892 -29.9699 0 0.370055 -29.9699 
1.72466e-19 0.517676 -29.9699 1.13305e-18 0.682154 -29.9698 9.62258e-19 0.862924 -29.9697 
1.36965e-17 1.07212 -29.9378 0 1.26931 -29.9695 0 1.49538 -29.9694 
5.16905e-22 1.74021 -29.9691 0 2.02721 -29.9686 0 2.38474 -29.8785 
2.04125 1.17851 -29.968 1.73659 1.00262 -29.9688 1.48976 0.860107 -29.9691 
1.27881 0.738315 -29.9693 1.08543 0.626668 -29.9695 0.907849 0.524144 -29.9482 
0.740145 0.427321 -29.9697 0.586329 0.338515 -29.9698 0.441995 0.255185 -29.9699 
0.313883 0.18122 -29.9699 0.199591 0.115233 -29.97 0.0990572 0.0571904 -29.97 
1.22558 2.77988 -0.782288 1.12998 2.74175 -0.621095 1.29513 2.97774 -1.2492 
1.01792 2.81876 -0.684368 1.07701 3.05914 -1.24998 2.58251 4.32395 -6.75053 
2.65277 4.44305 -7.60762 2.71227 4.54796 -8.49817 2.73781 4.61291 -9.42273 
2.76295 4.67414 -10.3502 2.07459 3.57873 -3.41803 2.23949 3.82172 -4.26247 
2.371 4.00492 -5.09188 2.76365 4.79031 -12.3791 2.74702 4.82049 -12.9944 
2.69407 4.85564 -14.6194 2.65497 4.87886 -15.7391 2.21489 2.75794 -1.92074 
3.51263 4.27463 -12.4007 3.53837 4.20856 -11.4745 3.4397 4.21369 -10.4728 
3.39868 4.17329 -9.53279 3.34657 4.11141 -8.61456 3.28114 4.03046 -7.71916 
3.18606 3.91253 -6.86062 3.08084 3.78823 -6.01673 2.95828 3.6421 -5.18108 
2.80236 3.45909 -4.3716 2.62792 3.25434 -3.54879 1.94942 2.57309 -1.2318 
1.89456 2.726 -1.45736 3.40561 4.39326 -15.0898 3.47363 4.33875 -14.2475 
1.76003 2.66659 -1.14323 3.29002 4.45792 -17.1037 2.5808 4.87779 -17.9319 
2.54639 4.85179 -18.9976 3.2244 4.43482 -19.13 2.4801 4.73464 -20.9765 
2.44835 4.64386 -21.8859 2.4082 4.5352 -22.7848 2.34279 4.37845 -23.6409 
2.26148 4.20958 -24.4801 2.16376 4.01571 -25.3047 2.05352 3.79841 -26.1161 
1.901 3.5182 -26.9587 3.05006 3.99949 -23.3157 3.1111 4.12143 -22.5018 
3.14375 4.21494 -21.6613 3.1749 4.30841 -20.824 2.8591 3.72037 -24.8 
2.49515 3.33514 -26.5472 2.0394 2.82465 -28.2343 1.6136 2.98007 -28.4394 
1.65882 2.84457 -28.6634 1.01374 5.45487 -16.7877 0.967409 5.44203 -17.7111 
1.18661 5.42115 -13.534 1.14491 5.44032 -14.3904 0.893503 5.37443 -19.6148 
0.874707 5.31877 -20.5818 0.844722 5.21622 -21.4927 0.735552 5.07763 -22.3803 
0.782499 4.96678 -23.2694 0.753515 4.79669 -24.129 0.722128 4.59534 -24.9702 
0.646073 4.33454 -25.9128 0.660066 4.07946 -26.6147 0.625971 3.75719 -27.4568 
1.25072 5.36694 -11.7943 1.95748 4.9643 -9.11093 1.91861 4.88107 -8.20292 
1.87289 4.77828 -7.31566 1.80546 4.63551 -6.46414 1.73679 4.48727 -5.61539 
1.65655 4.2805 -4.79502 1.56413 4.05156 -3.97852 1.41026 3.80608 -3.23103 
1.32346 3.45125 -2.28683 1.17917 3.65673 -27.3674 1.29246 3.97964 -26.5022 
1.39416 4.23977 -25.6601 1.48687 4.45122 -24.8126 1.57859 4.64379 -23.9527 
1.65389 4.79889 -23.0556 1.71727 4.93159 -22.1512 1.77123 5.0157 -21.2299 
1.82191 5.0942 -20.2739 1.85354 5.14449 -19.2798 1.88265 5.18682 -18.2753 
1.90648 5.20889 -17.2481 1.92458 5.21357 -16.206 1.94031 5.21152 -15.167 
1.95973 5.209 -13.8852 1.82332 5.01361 -12.8602 1.97412 5.13406 -12.0607 
1.98223 5.09226 -11.044 0.944948 3.83683 -2.93172 1.01024 4.13795 -3.78517 
1.06565 4.40765 -4.61779 1.11416 4.63574 -5.45111 1.15593 4.80228 -6.31774 
1.2214 4.91718 -7.19772 1.23416 5.08797 -8.07437 1.25246 5.18108 -9.01067 
1.26224 5.25643 -9.96721 0.980934 3.06692 -28.8323 0.822913 3.29733 -1.60089 
0.650998 3.00847 -29.1464 0.823604 2.91594 -29.2695 0.830074 2.94849 -0.812819 
0.142047 3.27481 -1.32324 0.39804 3.26648 -1.34916 0.316151 3.14047 -1.0382 
0.651785 5.46186 -11.3009 0.622466 5.39605 -10.2637 0.594311 5.33202 -9.26073 
0.569251 5.23543 -8.29434 0.550749 5.09408 -7.36677 0.523113 4.91726 -6.31511 
0.514908 4.75547 -5.56348 0.500782 4.53325 -4.7023 0.482937 4.26649 -3.84937 
0.453713 3.91073 -2.85818 0.774177 5.49949 -14.0595 0.729919 5.49347 -13.188 
3.44527 3.33949 -5.63886 3.52844 3.31308 -6.25592 3.63942 3.5965 -7.30569 
3.76828 3.77866 -9.05667 3.81492 3.84405 -9.9576 3.87255 3.86049 -10.9417 
3.97448 3.85667 -12.9591 4.01868 3.83696 -13.992 2.87064 2.74559 -2.96534 
3.11148 2.9763 -3.9047 4.03505 3.81827 -16.1354 4.00722 3.81928 -17.2459 
3.88567 3.8456 -19.283 3.72833 3.79878 -21.1813 3.66318 3.72494 -22.1584 
3.56396 3.61246 -23.0968 3.45746 3.46312 -23.9764 3.32924 3.29433 -24.8454 
3.1772 3.11131 -25.7085 2.97417 2.89549 -26.5686 2.40111 2.30153 -28.4192 
2.31227 2.08507 -29.1096 1.41139 2.75386 -0.885707 1.28525 2.80021 -29.1292 
1.38606 2.72727 -29.1856 0.265328 2.84006 -0.420267 0.27817 3.03963 -0.833852 
1.05987 2.58251 -0.125989 1.12757 2.56909 -0.251627 0.658917 3.55279 -2.10476 
0.0858179 3.00619 -0.698725 0.956384 2.64001 -0.321788 0.654682 2.99568 -0.818188 
0.677236 3.10484 -1.10973 0.612825 2.82314 -0.456892 2.11576 1.90377 -0.358155 
2.34223 2.1299 -1.08548 2.21538 2.0095 -0.717894 1.14178 2.60379 -0.38592 
1.09458 2.66671 -0.45245 1.69901 2.41015 -0.536807 3.58017 4.25941 -14.406 
3.61717 4.23551 -15.3747 3.43852 4.34437 -16.7519 3.64087 4.15646 -17.2943 
3.65223 4.11815 -18.2261 2.3484 2.27599 -1.3106 2.11711 2.47405 -1.28197 
2.1794 2.23108 -0.972771 0.46118 3.06771 -0.921306 0.0857637 2.83996 -0.3836 
2.03091 2.3625 -0.956293 2.32578 2.79739 -27.8723 2.13762 2.49794 -28.7092 
2.01609 2.66196 -28.5706 2.11984 2.23047 -29.2468 1.96171 2.31461 -29.2888 
0.170765 2.62209 -29.9677 0.608354 2.71751 -29.9681 0.749792 2.63088 -29.9679 
0.899951 2.5702 -29.9682 1.19965 2.40108 -29.9679 1.05974 2.50058 -29.9679 
1.85719 1.97698 -29.9657 1.79405 2.06201 -29.9649 1.64309 2.18653 -29.9684 
1.98513 1.81263 -29.9681 2.16135 1.57202 -29.9675 2.20042 1.35987 -29.9666 
2.15284 1.4113 -29.9669 2.12797 1.69649 -29.9675 1.83082 2.44366 -29.194 
1.58004 2.66913 -29.0781 1.49259 2.44729 -29.5873 2.6282 1.66112 -28.9911 
0.202941 2.99065 -29.2353 2.55408 1.67649 -29.1132 2.56135 1.55801 -29.2428 
1.28989 2.54105 -29.6717 1.70432 2.53269 -29.2019 1.89327 2.21522 -29.6416 
2.17053 1.94713 -29.5197 1.71408 2.2897 -29.6022 0.0778492 2.90291 -29.6143 
0.154571 3.09119 -29.0156 0.767895 2.74346 -29.6147 0.961395 2.76064 -29.5871 
2.45795 1.6185 -29.34 2.35016 1.87804 -29.2164 2.41882 1.9245 -29.0143 
2.36909 1.73121 -29.3199 2.22869 1.63988 -29.6031 2.19911 1.76814 -29.582 
2.39127 1.45982 -29.6078 2.31576 1.52593 -29.6269 1.04614 3.00641 -28.9151 
1.01058 2.8659 -29.2261 2.52109 1.78809 -29.0074 2.4097 1.79205 -29.1755 
0.205957 0.246252 -0.0323616 0.344867 0.32255 -0.0490669 0.470944 0.405287 -0.0365882 
0.0954254 0.173873 -0.0304756 0.609785 0.494053 -0.0302066 0.774501 0.59844 -0.0418401 
0.953918 0.713247 -0.0557428 1.13502 0.816686 -0.0367329 0.101666 0.289574 -0.0323169 
1.34873 0.940661 -0.0331994 0.105791 0.420926 -0.032566 1.61218 1.07314 -0.0514837 
0.107696 0.569914 -0.0313122 1.95667 1.29002 -0.0501038 0.118864 0.735885 -0.0397916 
0.12089 0.910132 -0.0452833 0.121323 1.0928 -0.0448207 0.11933 1.28589 -0.0338242 
0.124164 1.51411 -0.0400453 1.88282 1.46172 -0.0517237 0.162545 1.81143 -0.0536652 
1.81306 1.57462 -0.0320943 0.157579 2.08275 -0.031478 1.82771 1.71147 -0.0318694 
0.124253 2.38641 -0.0320456 1.73568 1.72229 -0.0317308 1.69147 1.81172 -0.0315296 
1.68952 1.91506 -0.03156 1.59511 1.91389 -0.0318906 0.311099 2.41223 -0.0318713 
1.57692 2.00996 -0.0318152 1.4302 1.96453 -0.0318256 0.401543 2.32332 -0.0320794 
1.29626 1.9637 -0.0326401 0.507765 2.37193 -0.0321517 1.17167 2.0332 -0.0326209 
0.600187 2.39621 -0.0318898 1.10844 2.14839 -0.0317146 1.08227 2.25059 -0.0323527 
0.661344 2.2783 -0.031948 1.04733 2.28415 -0.0328213 0.786274 2.31372 -0.032014 
0.967211 2.27493 -0.0326478 0.926645 2.39804 -0.0323326 0.220149 0.368528 -0.0385023 
0.35325 0.46077 -0.0502744 0.482647 0.559416 -0.0301992 0.634082 0.656779 -0.0306228 
0.801399 0.776268 -0.0544498 0.971678 0.89656 -0.0691279 1.16543 1.00557 -0.0371986 
1.40411 1.14785 -0.0422331 0.226293 0.511001 -0.0386776 0.231788 0.658354 -0.035261 
0.246202 0.827832 -0.035827 0.251698 1.00779 -0.0400968 0.254805 1.20079 -0.0472157 
0.253907 1.4062 -0.0493514 0.25147 1.62157 -0.0598091 1.58803 1.35034 -0.0576106 
0.294108 2.05556 -0.0670406 1.61748 1.52487 -0.0406143 1.50459 1.56722 -0.0432837 
1.49535 1.70827 -0.0404611 1.37733 1.73687 -0.0338192 1.21135 1.67079 -0.0379137 
0.48175 2.0899 -0.0318038 1.06742 1.71608 -0.0550206 0.942395 1.81261 -0.0339457 
0.949863 2.06993 -0.0327128 0.658567 2.02203 -0.0315625 0.813812 2.10173 -0.0329948 
0.354464 0.608915 -0.0394071 0.506114 0.727478 -0.0531173 0.66708 0.843555 -0.0536735 
0.818274 0.965787 -0.0498147 0.99627 1.08575 -0.0632161 1.38895 1.35128 -0.0585377 
0.373365 0.770048 -0.0478648 0.391825 0.948148 -0.04743 0.383385 1.12548 -0.0380631 
0.383709 1.31384 -0.0382392 0.395356 1.54809 -0.0448144 1.264 1.47723 -0.0556948 
1.05583 1.46067 -0.0414852 0.867451 1.48166 -0.0483907 0.762166 1.86928 -0.0335099 
0.53688 1.74991 -0.0327158 0.723776 1.61371 -0.0375176 0.549384 0.918412 -0.0954866 
0.688946 1.03917 -0.0604152 0.861892 1.19414 -0.0531825 0.545838 1.07966 -0.0615825 
0.50533 1.23989 -0.0385299 0.54831 1.43915 -0.0434613 0.67327 1.25398 -0.0423838 
1.07187 1.28638 -0.0544178 0.349952 1.82591 -0.0516869 1.68784 1.24836 -0.0917265 
1.19573 1.21146 -0.0486821 2.91046 1.88602 -1.77078 3.22101 2.10059 -2.64329 
3.49384 2.26257 -3.49212 3.73536 2.44059 -4.40313 3.93203 2.58205 -5.30107 
4.09768 2.7058 -6.16918 4.23263 2.80506 -7.02739 4.37336 2.94237 -8.51878 
4.4596 2.99437 -9.42667 4.51386 3.02061 -10.4127 4.56187 3.04741 -11.4008 
4.59099 3.05629 -12.4137 4.34659 2.82463 -7.78026 4.61679 3.05761 -13.4439 
4.64337 3.05831 -14.4767 4.64996 3.04726 -15.5054 4.64761 3.03118 -16.5244 
4.64352 3.01444 -17.5533 4.61939 2.99072 -18.5828 4.58072 2.96028 -19.5817 
4.52076 2.92221 -20.5527 4.44973 2.87379 -21.5088 4.33442 2.81063 -22.4562 
4.19247 2.7203 -23.4103 4.01852 2.63031 -24.347 3.81486 2.52759 -25.2183 
3.59295 2.41555 -26.0193 3.32621 2.26055 -26.88 3.04274 2.21155 -27.5356 
2.71038 2.07685 -28.3274 2.89596 1.84648 -28.3142 3.1184 2.01016 -27.6572 
2.7352 1.91039 -28.4959 0 0.381653 -29.6878 0 0.221973 -29.7325 
0 0.0973123 -29.7837 0 0.549726 -29.6703 0 0.730286 -29.6604 
2.34111e-17 0.143947 -29.4832 1.11068e-17 0.924213 -29.6157 2.7665e-17 0.19504 -29.0338 
1.73002e-19 1.12807 -29.609 4.9712e-19 0.223575 -28.4543 7.05785e-18 1.35466 -29.584 
-2.28029e-18 0.259387 -27.778 8.11615e-18 1.61556 -29.5341 0 0.287254 -26.9425 
1.06091e-17 1.91837 -29.4598 0 0.316812 -25.9771 4.46335e-17 2.22984 -29.3879 
-2.08334e-17 0.352516 -24.8739 3.91382e-18 2.5366 -29.3228 1.39509e-16 0.375464 -23.6456 
5.43057e-19 2.89066 -29.115 -2.75061e-17 0.386469 -22.3687 1.91304e-17 0.388549 -21.0223 
-8.38787e-18 0.390883 -19.6789 9.41401e-18 3.16846 -28.4756 1.78108e-17 0.391763 -18.3322 
-1.72184e-17 3.54928 -27.6618 -8.55633e-17 0.390093 -16.9889 -4.85371e-18 3.89687 -26.7805 
-5.20959e-18 0.388909 -15.6458 0 4.19007 -25.9058 0 0.388887 -14.3043 
0 4.43483 -25.0195 0 0.388981 -12.9667 -2.32314e-18 4.64241 -24.1333 
0 0.392937 -11.626 0 4.80839 -23.2281 0 0.392425 -10.2658 
-4.6574e-17 4.9404 -22.2604 -4.14444e-17 0.387655 -8.92952 3.42065e-17 5.03947 -21.3028 
4.73529e-19 0.38596 -7.5976 -5.86376e-18 5.1235 -20.321 3.46395e-19 0.36148 -6.31349 
-6.5594e-17 5.16703 -19.274 -2.36853e-17 0.347365 -5.11536 -3.97333e-17 5.21417 -18.257 
-3.43772e-17 0.328355 -4.0203 -1.26241e-17 5.2444 -17.2132 0 0.290421 -3.04552 
-5.59166e-17 5.25485 -16.1288 4.5494e-17 0.265199 -2.21194 -1.52396e-17 5.25964 -15.0458 
-1.51344e-17 0.222891 -1.53099 0 5.24979 -13.9782 3.05966e-18 0.187771 -0.962832 
6.77526e-18 5.23441 -12.9255 1.41966e-18 0.140177 -0.51726 -4.87602e-17 5.21178 -11.8663 
0 0.0895931 -0.208856 0 5.17117 -10.8218 0 5.1198 -9.81735 
2.59614e-17 5.04348 -8.82216 0 0.380865 -0.320189 7.38895e-17 4.95368 -7.85266 
4.96184e-19 0.524244 -0.321056 1.24947e-16 4.81999 -6.92839 0 0.689948 -0.332618 
8.13919e-18 4.65953 -6.00982 5.75455e-18 0.867421 -0.357472 -2.02296e-17 4.46304 -5.12013 
0 1.06336 -0.379369 4.39688e-17 4.21854 -4.21609 0 1.26892 -0.388111 
0 3.91296 -3.2946 0 1.49661 -0.427595 0 3.47347 -2.22927 
-1.55538e-17 1.77479 -0.494924 0 3.15819 -1.39821 0 2.05973 -0.545096 
0 2.38551 -0.63907 0 2.84699 -0.655657 0 0.228191 -0.279659 
0 2.6207 -0.627059 1.15943e-20 0.563091 -29.3277 0 0.356642 -29.3095 
0 0.765165 -29.2761 0 0.979753 -29.2519 3.01941e-17 1.21764 -29.1962 
-3.07927e-19 0.42429 -28.731 3.1257e-17 1.46483 -29.1348 -3.8381e-19 0.492326 -28.1006 
0 1.76209 -29.0434 2.36806e-18 0.546653 -27.3372 3.07457e-17 2.07613 -28.9442 
5.12891e-17 0.614768 -26.4358 3.0921e-18 2.43544 -28.8033 -1.64136e-17 0.676494 -25.3845 
-6.49876e-19 2.89261 -28.4714 0 0.725105 -24.2244 -2.27101e-18 0.755525 -22.9816 
-5.09469e-18 0.776942 -21.6633 -7.66147e-18 0.779616 -20.3174 3.23878e-17 0.783292 -18.986 
1.45565e-17 0.781754 -17.6435 -1.12544e-17 3.42671 -27.4695 -1.25355e-16 0.779356 -16.3069 
-1.9422e-19 3.75574 -26.577 0 0.777508 -14.9722 8.03035e-19 4.03041 -25.686 
0 0.777777 -13.6457 1.06202e-17 4.26894 -24.7663 0 0.781493 -12.3111 
5.47062e-19 4.45508 -23.8175 0 0.785717 -10.9693 2.42806e-17 4.60368 -22.8787 
0 0.779002 -9.62965 3.79821e-18 4.71535 -21.8834 1.78527e-19 0.775154 -8.29347 
-6.50441e-18 4.79954 -20.8954 2.40317e-19 0.753304 -7.00399 -5.11653e-17 4.85751 -19.8741 
3.31314e-20 0.723018 -5.71636 -1.10481e-16 4.89145 -18.8173 -4.97341e-17 0.677333 -4.59692 
-1.12609e-16 4.9292 -17.7781 0 0.617107 -3.54452 -8.36458e-17 4.93833 -16.6915 
2.93682e-17 0.55712 -2.63963 -6.80619e-17 4.946 -15.6092 7.92943e-18 0.484222 -1.87299 
-2.27126e-17 4.94466 -14.5164 6.54812e-19 0.40818 -1.25326 5.42826e-18 4.93665 -13.4404 
1.61362e-17 0.340832 -0.696816 4.23818e-17 4.92098 -12.3822 -8.39419e-18 4.89403 -11.3234 
5.63293e-18 4.85804 -10.2546 0 4.8002 -9.2265 2.68685e-17 4.72221 -8.25321 
0 0.528278 -0.655239 4.70541e-17 4.62135 -7.27054 -6.12283e-18 0.718084 -0.667213 
7.19012e-18 4.47248 -6.3241 1.59503e-18 0.925328 -0.723881 0 4.2943 -5.37997 
2.17131e-17 1.1313 -0.751889 0 4.07358 -4.46225 0 1.37088 -0.809961 
0 3.80221 -3.55894 0 1.62198 -0.872167 0 3.4129 -2.57302 
0 1.93767 -0.995361 0 2.8318 -1.51615 0 2.31606 -1.17895 
1.08487e-17 0.56685 -28.952 3.34495e-18 0.784197 -28.848 0 1.02331 -28.817 
1.68302e-17 1.28361 -28.7546 7.46554e-17 1.56673 -28.652 -1.83886e-18 0.717651 -28.3913 
2.53355e-17 1.90914 -28.5037 1.18595e-17 0.778844 -27.6641 2.62306e-17 2.30007 -28.297 
2.11386e-19 0.888473 -26.8194 0 2.6506 -28.1248 -4.72745e-17 0.980344 -25.8561 
4.67918e-17 2.94087 -28.0598 4.42305e-18 1.05494 -24.7406 -1.7163e-17 1.10985 -23.5263 
-2.34048e-17 1.14401 -22.2384 3.02469e-18 1.16443 -20.9392 1.89728e-17 1.1708 -19.6173 
6.85708e-17 1.17081 -18.2971 -2.90002e-17 1.1641 -16.9649 -1.09142e-17 3.25949 -27.2729 
2.503e-17 1.16217 -15.634 0 3.55574 -26.4118 1.29283e-17 1.16257 -14.3143 
1.89922e-17 3.85416 -25.4342 -9.83498e-18 1.16512 -12.9951 1.60607e-17 4.08982 -24.4645 
-1.57262e-17 1.17113 -11.6652 2.90743e-17 4.25176 -23.5025 0 1.1701 -10.3428 
2.5792e-17 4.37575 -22.5089 0 1.16253 -9.00587 2.40039e-18 4.46916 -21.4915 
0 1.14206 -7.70806 6.06414e-17 4.53607 -20.4629 0 1.10882 -6.43905 
-5.01351e-17 4.57648 -19.4237 -1.45456e-17 1.04945 -5.23923 -1.22723e-16 4.60807 -18.3535 
-2.27346e-17 0.977438 -4.13363 -1.08721e-16 4.61836 -17.2597 1.95517e-18 0.892184 -3.14553 
-6.89991e-17 4.62551 -16.1758 1.63334e-18 0.791171 -2.29412 -4.79912e-17 4.62787 -15.0685 
0 0.70401 -1.55214 -2.28356e-18 4.62539 -13.9725 -1.64494e-17 0.538137 -1.0285 
-1.31706e-17 4.61826 -12.8745 -5.62869e-18 4.5966 -11.8247 -1.56026e-17 4.56603 -10.7272 
-6.54245e-17 4.52384 -9.67666 -6.38823e-18 4.46975 -8.65996 -6.94723e-22 4.37542 -7.63836 
8.84109e-18 0.723867 -1.05971 1.56536e-17 4.26468 -6.6477 -1.28725e-17 0.954525 -1.10408 
0 4.10256 -5.6835 1.42521e-18 1.20697 -1.21279 0 3.89298 -4.71463 
1.04276e-19 1.45915 -1.2656 0 3.62474 -3.75878 0 1.74835 -1.36876 
-3.12335e-18 3.37348 -2.94314 0 2.07036 -1.50903 -1.83946e-17 2.90345 -2.0678 
-1.45194e-17 2.47992 -1.7852 0 1.01775 -28.3176 0 1.32206 -28.2016 
0 1.65052 -28.1063 -2.1582e-17 2.01851 -27.9071 0 2.44043 -27.6319 
2.79577e-17 1.12484 -27.1726 0 2.95242 -27.2504 -4.12997e-18 1.25956 -26.2569 
-4.51363e-17 1.37328 -25.2111 -1.68312e-17 1.44888 -24.0419 -5.6073e-17 1.50575 -22.7919 
-3.31884e-18 1.53421 -21.5045 4.31284e-18 1.54798 -20.208 3.32659e-17 1.5514 -18.8895 
1.03839e-16 1.54796 -17.6034 7.66059e-17 1.54262 -16.2904 6.8985e-17 1.54115 -14.9792 
0 3.38541 -26.1311 2.10417e-16 1.54192 -13.6632 6.00279e-19 3.68902 -25.1 
-1.13639e-16 1.54747 -12.3653 5.48801e-18 3.87943 -24.1346 -8.04245e-17 1.55169 -11.057 
2.46552e-17 4.01831 -23.1518 0 1.54813 -9.74138 2.1085e-17 4.12711 -22.1228 
0 1.52449 -8.46258 6.87619e-17 4.20534 -21.0654 0 1.50043 -7.17293 
-5.94666e-18 4.24979 -20.0104 0 1.44427 -5.94066 -3.85776e-17 4.28355 -18.9601 
-2.22214e-17 1.3615 -4.78362 -5.25359e-17 4.2963 -17.8371 -1.58712e-18 1.26187 -3.71034 
-4.44225e-17 4.30181 -16.7445 0 1.14599 -2.79698 -2.30671e-17 4.30777 -15.646 
6.25674e-17 1.03651 -2.02174 -1.06844e-17 4.30607 -14.5261 -7.93373e-17 4.30408 -13.3987 
-6.66621e-17 4.29331 -12.3132 -5.14708e-17 4.26573 -11.2357 -3.69781e-17 4.23875 -10.1195 
-1.92146e-17 4.19725 -9.07245 -4.0327e-19 4.13037 -8.02651 -4.41452e-19 4.029 -7.01572 
0 3.89115 -6.01205 4.55284e-17 1.22643 -1.74717 0 3.70728 -5.00995 
0 1.53318 -1.79569 0 3.44212 -3.97128 0 1.85129 -1.93136 
-6.43731e-18 3.0365 -2.79772 0 2.17326 -2.06251 0 2.56002 -2.31817 
3.33977e-17 0.978806 -27.8415 3.30574e-17 1.33866 -27.5564 0 1.69112 -27.5028 
0 2.06643 -27.2785 0 2.50035 -26.933 0 2.92948 -26.6231 
0 1.4959 -26.6387 0 1.65226 -25.6274 -4.05356e-18 1.77543 -24.5337 
-1.43389e-16 1.84564 -23.3182 -1.04023e-16 1.89291 -22.0464 8.20784e-18 1.91744 -20.7642 
6.34582e-19 1.93062 -19.4879 6.38302e-17 1.92846 -18.1945 1.34403e-16 1.92502 -16.9084 
1.74181e-16 1.92174 -15.6256 8.28877e-17 1.91947 -14.3332 0 3.29854 -25.7109 
7.8589e-17 1.92415 -13.0415 0 3.46617 -24.8328 -2.50088e-16 1.92882 -11.7475 
0 3.64178 -23.8095 -5.32568e-17 1.93107 -10.4628 1.13927e-17 3.76964 -22.773 
0 1.91265 -9.18883 -1.01899e-18 3.85838 -21.6886 0 1.88402 -7.9281 
-7.5818e-18 3.91461 -20.6177 0 1.83314 -6.66505 -5.88587e-18 3.95431 -19.5486 
0 1.75319 -5.46929 0 3.97434 -18.426 -5.6636e-18 1.64673 -4.3637 
0 3.98484 -17.3292 0 1.52752 -3.35842 0 3.98398 -16.2124 
4.39572e-17 1.40102 -2.5336 0 3.98162 -15.0983 0 3.97444 -13.9439 
-2.82249e-17 3.97513 -12.8291 2.76233e-18 3.96646 -11.7111 3.62951e-17 3.94862 -10.609 
1.55042e-17 3.91452 -9.51347 -1.50763e-19 3.86568 -8.44805 -6.15174e-19 3.77984 -7.38919 
-1.94771e-19 3.65891 -6.35675 0 3.50446 -5.37923 0 1.58276 -2.32921 
0 3.27818 -4.34648 2.64605e-17 1.92161 -2.58048 0 2.97715 -3.33923 
0 2.28059 -2.77851 0 1.70485 -26.9005 1.18864e-17 2.05882 -26.6266 
3.13939e-17 2.4723 -26.2362 0 2.96686 -25.7576 0 1.9084 -26.0177 
3.72672e-17 2.08619 -24.9737 -1.26609e-18 2.18581 -23.8362 -2.33123e-17 2.22854 -22.5852 
-4.76472e-17 2.26673 -21.3378 1.60858e-17 2.28264 -20.0716 -3.49082e-17 2.29436 -18.8031 
2.51465e-17 2.29088 -17.5009 1.62766e-17 2.28478 -16.2237 1.14063e-16 2.28414 -14.9362 
3.50771e-18 2.28782 -13.6867 -7.65551e-17 2.28863 -12.4035 5.19861e-17 3.21614 -24.5342 
-1.77883e-16 2.28611 -11.1392 -1.43279e-17 3.39711 -23.4219 -8.03678e-18 2.27637 -9.90118 
-1.25183e-17 3.50434 -22.3076 1.10462e-17 2.24914 -8.64719 -1.72369e-17 3.57403 -21.2291 
0 2.21591 -7.40369 -1.65483e-17 3.61496 -20.1353 0 2.13629 -6.19419 
-6.8409e-18 3.63449 -19.0094 0 2.04809 -5.01453 3.15607e-18 3.66139 -17.9164 
0 1.88125 -4.05045 2.16964e-17 3.66461 -16.8024 0 1.86869 -3.24145 
1.42969e-17 3.65029 -15.691 0 3.6507 -14.5662 0 3.64878 -13.4036 
1.18229e-17 3.64456 -12.2708 9.29183e-18 3.63176 -11.1298 5.52263e-17 3.60779 -9.96844 
-4.29393e-17 3.56844 -8.89189 3.56704e-18 3.50275 -7.7963 0 3.40421 -6.72111 
0 3.25946 -5.64537 0 3.1368 -4.77454 0 2.80305 -3.80119 
0 2.3445 -3.57442 -6.96154e-18 2.33061 -25.5597 -1.02309e-17 2.77122 -25.0903 
-5.50239e-17 2.53524 -24.3031 -3.32889e-17 2.54688 -23.0875 -3.37968e-18 2.58642 -21.8887 
4.96204e-17 2.62424 -20.6739 1.07263e-16 2.63916 -19.4123 -8.08156e-17 2.65118 -18.1242 
-8.08796e-17 2.64985 -16.8106 9.66491e-17 2.63859 -15.5069 3.5552e-17 2.63534 -14.2619 
-4.28449e-17 2.64235 -13.0249 1.31346e-16 2.64004 -11.7921 -3.55352e-17 2.98535 -23.9786 
-1.11751e-16 2.63199 -10.557 -7.40562e-17 3.15367 -22.8902 6.94577e-17 2.60649 -9.34316 
-6.72821e-17 3.22707 -21.8241 2.13581e-17 2.57209 -8.09549 7.09603e-18 3.28031 -20.6878 
0 2.51415 -6.90357 4.68113e-17 3.29423 -19.5417 0 2.41465 -5.69418 
-8.23359e-17 3.30042 -18.4056 0 2.30306 -4.44532 2.74839e-17 3.38304 -17.3715 
5.33243e-17 3.3131 -16.3688 3.39937e-17 3.31622 -15.2474 0 3.3181 -14.046 
0 3.31368 -12.8676 -8.5019e-17 3.30691 -11.7117 -4.8998e-17 3.29049 -10.542 
5.03294e-17 3.26654 -9.36768 2.52313e-17 3.21469 -8.27312 0 3.15075 -7.1226 
0 3.02891 -5.9798 0 2.78436 -4.72066 1.05474e-17 2.82983 -23.3505 
4.75931e-18 2.88671 -22.3899 -1.46825e-17 2.93417 -21.2743 9.4318e-17 2.96509 -20.0823 
6.08056e-17 2.97777 -18.8242 -3.52244e-17 3.01838 -17.4183 7.83618e-17 2.9867 -16.0353 
1.64332e-17 2.97854 -14.7704 0 2.98526 -13.5582 1.7042e-17 2.98118 -12.3508 
-1.78469e-16 2.9774 -11.162 -6.90719e-17 2.95508 -9.9646 4.22841e-17 2.92748 -8.76414 
1.28188e-17 2.87527 -7.58834 0 2.78905 -6.45669 0 2.67433 -5.40987 
1.85364e-17 0.934449 -1.4583 0 2.90148 -1.29036 0 2.558 -2.81903 
0.336159 0.19408 -0.322268 0.476001 0.274818 -0.318416 0.187164 0.108059 -0.296177 
0.638721 0.368764 -0.354376 0.0841853 0.0486042 -0.233455 0.803492 0.463894 -0.372805 
0.986243 0.569405 -0.399415 0.121368 0.0700714 -0.517532 1.18074 0.681697 -0.419667 
0.163263 0.0942595 -0.95774 1.39316 0.804337 -0.450047 0.19648 0.113437 -1.52866 
1.64294 0.948546 -0.51086 0.226651 0.130856 -2.22447 1.94377 1.12223 -0.614787 
0.240103 0.138623 -3.03173 2.20708 1.27425 -0.63074 0.27458 0.158528 -4.01107 
2.42913 1.40245 -0.677142 0.295734 0.170741 -5.11101 0.315839 0.182349 -6.31587 
0.327655 0.189171 -7.58899 2.55052 1.47254 -1.06692 0.328309 0.189548 -8.92567 
0.337178 0.194669 -10.2682 3.07599 1.77591 -2.37726 0.337153 0.194655 -11.6235 
3.3762 1.94924 -3.26435 0.33704 0.194589 -12.9656 3.62238 2.09137 -4.12079 
0.336988 0.194559 -14.3043 3.83465 2.21392 -4.96502 0.33693 0.194525 -15.6465 
4.00168 2.31036 -5.82303 0.336792 0.194446 -16.9883 4.1456 2.39345 -6.76538 
0.338186 0.195251 -18.3294 4.26238 2.46087 -7.65704 0.338457 0.195407 -19.6794 
4.35892 2.51661 -8.5462 0.33277 0.192124 -21.0165 4.42342 2.55385 -9.56514 
0.33277 0.192124 -22.3659 4.47388 2.58298 -10.5654 0.314628 0.18165 -23.6326 
4.5133 2.60574 -11.5679 0.305593 0.176433 -24.8551 4.53253 2.61684 -12.5994 
0.281449 0.162494 -25.9698 4.55165 2.62788 -13.6281 0.25028 0.144498 -26.9483 
4.56018 2.63281 -14.6825 0.222148 0.128257 -27.7714 4.54671 2.62503 -15.7405 
0.195367 0.112794 -28.4676 4.53744 2.61968 -16.7628 0.166791 0.0962964 -29.0331 
4.52895 2.61478 -17.8216 0.129156 0.0745678 -29.4799 4.50422 2.6005 -18.8711 
0.0823535 0.0475466 -29.7822 4.46676 2.57887 -19.8682 4.41559 2.54933 -20.8392 
0.193779 0.111878 -29.7323 4.34001 2.50569 -21.7749 0.325989 0.188209 -29.6855 
4.23922 2.4475 -22.6774 0.467568 0.269949 -29.6685 4.10437 2.36964 -23.5889 
0.628279 0.362735 -29.6449 3.95435 2.28303 -24.4718 0.792506 0.457551 -29.6397 
3.76835 2.17564 -25.3533 0.972774 0.561628 -29.61 3.52412 2.03464 -26.247 
1.15879 0.669027 -29.5906 3.23831 1.86963 -27.1685 1.37596 0.794405 -29.5504 
2.96897 1.71413 -27.9644 1.62059 0.935642 -29.4888 2.77835 1.60407 -28.5811 
1.96212 1.13282 -29.3089 2.32344 1.34143 -29.1403 2.78664 1.60886 -1.65087 
2.47897 1.43122 -29.2164 0.498143 0.287601 -0.693174 0.308177 0.177925 -0.695757 
0.655901 0.378682 -0.690232 0.856203 0.494326 -0.767064 1.05466 0.608906 -0.799584 
1.28269 0.740555 -0.875804 1.51961 0.87734 -0.930075 0.361085 0.208472 -1.25185 
1.82209 1.05198 -1.09074 0.420671 0.242873 -1.8885 2.12023 1.22411 -1.20203 
0.471668 0.272316 -2.64097 0.530929 0.306531 -3.53918 0.58612 0.338395 -4.57669 
0.617806 0.356689 -5.75015 0.648182 0.374226 -6.97872 0.66025 0.381193 -8.29208 
0.674349 0.389333 -9.65019 0.674178 0.389234 -10.9659 2.9629 1.71062 -2.56125 
0.674134 0.389209 -12.3196 3.25438 1.87891 -3.45157 0.673903 0.389076 -13.6413 
3.49372 2.01709 -4.34145 0.673806 0.38902 -14.9778 3.69304 2.13216 -5.24622 
0.673517 0.388853 -16.3054 3.85173 2.22379 -6.15227 0.674093 0.389186 -17.6475 
3.96679 2.29022 -7.06994 0.676579 0.390621 -18.9779 4.07579 2.35315 -7.94034 
0.673454 0.388817 -20.3197 4.15294 2.39769 -8.89565 0.66738 0.38531 -21.6559 
4.20267 2.4264 -9.98966 0.646526 0.37327 -22.9793 4.24553 2.45114 -11.0118 
0.617157 0.356314 -24.2989 4.26471 2.46222 -12.0525 0.586208 0.338446 -25.3769 
4.27864 2.47026 -13.0922 0.527999 0.304839 -26.4609 4.28811 2.47573 -14.1496 
0.482016 0.278291 -27.3666 4.28732 2.47527 -15.205 0.418709 0.241741 -28.1206 
4.26706 2.46358 -16.2793 0.35393 0.20434 -28.7483 4.26018 2.4596 -17.3397 
0.297086 0.171522 -29.3201 4.25391 2.45598 -18.4553 4.22526 2.43944 -19.4815 
4.19909 2.42433 -20.4851 4.13931 2.38982 -21.4345 4.05941 2.34369 -22.3604 
0.483037 0.27888 -29.3199 3.94673 2.27863 -23.2662 0.668002 0.385669 -29.2699 
3.80857 2.19887 -24.1774 0.84718 0.489117 -29.2433 3.63028 2.09593 -25.1003 
1.04469 0.60315 -29.234 3.41442 1.9713 -26.0219 1.25123 0.722395 -29.1575 
3.12095 1.80187 -26.9943 1.47366 0.850814 -29.1009 2.70099 1.55941 -28.0781 
1.74373 1.00674 -28.9941 2.13647 1.23348 -28.7152 2.52998 1.46068 -1.54207 
0.677407 0.391099 -1.14374 0.486588 0.28093 -1.06739 0.892751 0.515427 -1.19115 
1.11976 0.646488 -1.26161 1.3645 0.78779 -1.3465 1.65695 0.956633 -1.49489 
2.01168 1.16144 -1.74977 0.61547 0.35534 -1.61854 2.33923 1.35055 -1.96298 
0.671475 0.387674 -2.35585 0.758257 0.437778 -3.15259 0.870634 0.502658 -4.10111 
0.90322 0.521472 -5.22547 0.9351 0.539877 -6.43579 0.980988 0.566371 -7.69261 
1.00717 0.58149 -9.01924 1.01135 0.583899 -10.3479 1.01119 0.583808 -11.6672 
2.83415 1.63629 -2.74414 1.011 0.583696 -12.9953 3.07713 1.77657 -3.6059 
1.00677 0.581253 -14.314 3.33625 1.92618 -4.57529 1.00865 0.582341 -15.6383 
3.52654 2.03604 -5.53024 1.01011 0.583182 -16.9645 3.66584 2.11646 -6.46873 
1.01077 0.583564 -18.2932 3.77616 2.18016 -7.35426 1.01 0.583123 -19.6122 
3.87546 2.23749 -8.24761 1.0026 0.57885 -20.9236 3.92572 2.2665 -9.33609 
0.984346 0.568309 -22.2708 3.97002 2.29208 -10.4384 0.933673 0.539053 -23.723 
3.98596 2.30128 -11.4841 0.900584 0.51995 -24.8563 4.00247 2.31081 -12.5287 
0.842124 0.486198 -25.8608 4.01333 2.31709 -13.612 0.764984 0.441661 -26.8587 
4.0232 2.32279 -14.6607 0.675021 0.389722 -27.7094 4.00929 2.31475 -15.7312 
0.581824 0.335914 -28.4139 3.99479 2.30638 -16.8294 0.485055 0.280045 -28.9431 
3.98797 2.30244 -17.9489 3.97856 2.29701 -19.0535 3.95522 2.28354 -20.0744 
3.9249 2.26603 -21.0695 3.85319 2.22463 -22.0169 3.76775 2.1753 -22.9426 
0.700958 0.404696 -28.7798 3.64071 2.10195 -23.86 0.897693 0.51828 -28.7994 
3.47918 2.00869 -24.813 1.10902 0.640288 -28.7439 3.28666 1.89754 -25.742 
1.34097 0.774207 -28.6714 3.02629 1.74722 -26.6891 1.59449 0.920577 -28.5745 
2.65636 1.53364 -27.6936 1.86784 1.07839 -28.4596 2.20292 1.27185 -28.2216 
2.57105 1.48439 -1.98965 0.880497 0.508353 -1.65856 1.15802 0.66858 -1.78436 
1.43738 0.829869 -1.8966 1.76109 1.01676 -2.10772 2.12365 1.22609 -2.35362 
2.56636 1.48168 -2.76002 0.968143 0.558955 -2.82975 1.09308 0.631085 -3.74286 
1.16458 0.672365 -4.77419 1.22837 0.709197 -5.90452 1.27887 0.738353 -7.16021 
1.3172 0.760483 -8.45239 1.3408 0.774108 -9.75415 1.34165 0.774597 -11.0667 
1.33941 0.773307 -12.3424 1.33398 0.770168 -13.6604 2.94072 1.69782 -3.87682 
1.33207 0.769064 -14.9813 3.19178 1.84276 -4.89949 1.33489 0.770696 -16.3015 
3.3479 1.9329 -5.83501 1.33183 0.768927 -17.5886 3.466 2.00108 -6.80236 
1.32982 0.767769 -18.9104 3.56457 2.05799 -7.70278 1.33122 0.768577 -20.2013 
3.63334 2.0977 -8.73888 1.32749 0.766421 -21.5008 3.68253 2.1261 -9.82497 
1.28566 0.742269 -22.9264 3.70216 2.13743 -10.8979 1.23997 0.715895 -24.2108 
3.71836 2.14679 -11.9394 1.18982 0.686941 -25.2378 3.7342 2.15593 -13.0322 
1.07164 0.618708 -26.3354 3.7447 2.16199 -14.1183 0.963486 0.556266 -27.2276 
3.74514 2.16224 -15.1975 0.836749 0.483094 -28.015 3.72898 2.15292 -16.2809 
3.72806 2.15239 -17.3975 3.71919 2.14726 -18.499 3.70444 2.13875 -19.5751 
3.67995 2.12461 -20.5811 3.62749 2.09432 -21.6343 3.54936 2.04921 -22.5953 
3.45104 1.99245 -23.5228 3.30643 1.90896 -24.5026 1.16585 0.673102 -28.1891 
3.13322 1.80896 -25.4629 1.42681 0.823768 -28.0862 2.90203 1.67548 -26.3773 
1.73304 1.00057 -27.9221 2.61055 1.50719 -27.2899 2.02008 1.16629 -27.8091 
0.846113 0.488501 -2.17113 0.939401 0.542361 -28.3163 1.16451 0.672328 -2.44775 
1.47821 0.85344 -2.5191 1.81304 1.04675 -2.76014 2.16367 1.24919 -3.05815 
2.53403 1.46301 -3.38115 1.32069 0.762495 -3.405 1.4292 0.825145 -4.34051 
1.48492 0.857314 -5.42313 1.56987 0.906363 -6.6765 1.62079 0.935757 -7.89852 
1.65411 0.954996 -9.17962 1.66778 0.962886 -10.4834 1.67462 0.966837 -11.7042 
1.66414 0.960789 -13.007 1.65617 0.956183 -14.325 2.85455 1.64806 -4.29861 
1.65861 0.957593 -15.6347 3.00587 1.73543 -5.1675 1.66123 0.959105 -16.9111 
3.15976 1.82428 -6.15109 1.65209 0.953827 -18.2097 3.24732 1.87483 -7.19688 
1.65021 0.952743 -19.5104 3.32689 1.92077 -8.16398 1.65244 0.954031 -20.7905 
3.39205 1.95839 -9.22538 1.63769 0.945513 -22.0624 3.42119 1.97521 -10.2923 
1.5799 0.912151 -23.422 3.43464 1.98298 -11.3566 1.53787 0.887883 -24.5412 
3.45061 1.9922 -12.4297 1.4192 0.819373 -25.762 3.46108 1.99825 -13.5505 
1.25608 0.725196 -26.6636 3.46384 1.99984 -14.6576 1.19437 0.689568 -27.472 
3.46426 2.00008 -15.7444 3.46247 1.99905 -16.8503 3.4601 1.99768 -17.9472 
3.4465 1.98983 -19.0199 3.43051 1.9806 -20.0869 3.38471 1.95415 -21.1461 
3.32268 1.91834 -22.2204 3.23163 1.86577 -23.2299 3.11642 1.79926 -24.1687 
2.9433 1.69931 -25.1779 1.47177 0.849723 -27.4175 2.70528 1.56189 -26.1399 
1.80024 1.03937 -27.2943 2.47881 1.43113 -26.9929 2.217 1.27998 -26.9123 
1.51437 0.874318 -3.15612 1.81597 1.04845 -3.38815 2.14999 1.24129 -3.70966 
2.56337 1.47995 -4.23615 1.70727 0.985685 -4.0678 1.73037 0.999022 -4.9774 
1.83769 1.06099 -6.21056 1.90971 1.10256 -7.43299 1.95323 1.12769 -8.66932 
1.9842 1.14557 -9.93476 1.99712 1.15303 -11.1363 1.99782 1.15344 -12.3886 
1.98441 1.14569 -13.7055 1.97855 1.14231 -14.984 1.98491 1.14598 -16.2416 
2.79244 1.61221 -5.43484 1.9791 1.14263 -17.5225 2.93168 1.6926 -6.54927 
1.97074 1.1378 -18.8089 3.01915 1.7431 -7.61291 1.96981 1.13727 -20.06 
3.09448 1.78659 -8.63474 1.97258 1.13886 -21.3286 3.14254 1.81433 -9.69705 
1.92548 1.11167 -22.6168 3.14655 1.81665 -10.7367 1.85699 1.07213 -23.8611 
3.16057 1.82474 -11.8185 1.77558 1.02513 -25.1002 3.17032 1.83038 -12.9518 
1.5743 0.908918 -26.4357 3.17739 1.83446 -14.0682 3.18104 1.83657 -15.1756 
3.17918 1.83549 -16.3275 3.17489 1.83301 -17.431 3.16886 1.82953 -18.5594 
3.15696 1.82266 -19.6327 3.13768 1.81153 -20.7328 3.07698 1.77649 -21.761 
3.00606 1.73554 -22.8047 2.92252 1.68731 -23.8024 2.77131 1.60001 -24.8088 
2.54467 1.46916 -25.8397 1.81585 1.04838 -26.6187 2.16084 1.24755 -26.2866 
2.05406 1.1859 -4.33109 2.41412 1.39378 -4.79658 2.0661 1.19286 -5.79126 
2.17532 1.25592 -6.96165 2.24262 1.29477 -8.16927 2.28018 1.31646 -9.45442 
2.29511 1.32508 -10.6896 2.30949 1.33338 -11.868 2.3001 1.32795 -13.1287 
2.28526 1.31939 -14.4152 2.29256 1.3236 -15.62 2.29153 1.32301 -16.8605 
2.60308 1.50288 -5.91295 2.28202 1.31752 -18.119 2.70688 1.56281 -7.0326 
2.28627 1.31997 -19.3531 2.77401 1.60157 -8.11054 2.28719 1.3205 -20.5885 
2.884 1.66507 -9.0616 2.26714 1.30893 -21.8503 2.8544 1.64798 -10.0629 
2.19616 1.26795 -23.0461 2.87118 1.65767 -11.1171 2.11414 1.22059 -24.2657 
2.88352 1.66479 -12.2646 2.0397 1.17761 -25.5096 2.89054 1.66885 -13.4261 
2.89219 1.6698 -14.5712 2.88854 1.66769 -15.7133 2.88851 1.66768 -16.8963 
2.88281 1.66438 -18.0274 2.87594 1.66042 -19.1891 2.86911 1.65647 -20.3385 
2.83653 1.63766 -21.4299 2.77064 1.59962 -22.4886 2.67401 1.54383 -23.5007 
2.63196 1.51956 -24.3954 2.41438 1.39393 -25.3299 2.26764 1.30921 -5.34061 
2.39537 1.38296 -6.44779 2.48383 1.43403 -7.61599 2.57292 1.48547 -8.9555 
2.58253 1.49102 -10.3182 2.59381 1.49753 -11.4919 2.59994 1.50107 -12.6555 
2.59135 1.49611 -13.9031 2.59772 1.49979 -15.0732 2.60048 1.50138 -16.255 
2.59637 1.49901 -17.4635 2.59693 1.49933 -18.6839 2.59613 1.49887 -19.8872 
2.591 1.49591 -21.0911 2.52903 1.46013 -22.2064 2.45203 1.41567 -23.3338 
1.96511 1.13455 -4.8601 2.35754 1.36112 -24.4979 2.23847 1.29237 -27.7722 
1.1599 2.89632 -0.964726 2.15257 3.20354 -2.7299 2.4366 3.53796 -3.88774 
2.59732 3.73717 -4.71436 2.73328 3.91339 -5.53986 2.8305 4.05801 -6.38703 
2.93096 4.1863 -7.2324 2.99798 4.29023 -8.11609 3.05353 4.36653 -9.03243 
3.0858 4.41192 -9.96094 3.11743 4.46719 -10.8996 3.13925 4.51664 -11.9071 
3.16583 4.53541 -13.0768 3.10794 4.58918 -14.2894 3.04358 4.63417 -15.2656 
2.9766 4.67551 -16.407 2.93365 4.68339 -17.5361 2.9093 4.65135 -18.6296 
2.8786 4.62573 -19.5613 2.84039 4.56548 -20.4699 2.80953 4.47533 -21.3415 
2.78248 4.38312 -22.2109 2.7292 4.26768 -23.053 2.65954 4.12038 -23.8267 
2.50365 3.86827 -25.1174 2.64043 3.95557 -24.4766 2.37876 3.69984 -25.8466 
2.19571 3.42674 -26.77 1.99457 3.13783 -27.6707 2.12582 2.85752 -1.99953 
3.31541 4.44219 -13.7503 0.81227 3.12977 -28.7612 0.956524 3.56906 -27.6994 
0.936585 3.88098 -26.9677 1.01119 4.17681 -26.1386 1.07471 4.4275 -25.3108 
1.13534 4.63136 -24.4538 1.19076 4.82441 -23.5464 1.37419 4.95336 -22.566 
1.44551 5.05988 -21.613 1.49118 5.14594 -20.6937 1.52094 5.20641 -19.7251 
1.55895 5.25346 -18.7577 1.58503 5.27968 -17.7396 1.57546 5.31234 -16.6282 
1.64362 5.29812 -15.5576 1.06207 4.99941 -22.779 1.66233 5.29516 -14.5321 
1.13274 5.09164 -21.9655 1.57201 5.31322 -13.462 1.15856 5.19106 -21.0849 
1.60022 5.26965 -12.3942 1.2073 5.26181 -20.1326 1.61362 5.22924 -11.4586 
1.21543 5.31834 -19.2014 1.62687 5.19188 -10.4671 1.26848 5.34844 -18.2579 
1.62117 5.11667 -9.52601 1.28587 5.36918 -17.3263 1.59723 5.03422 -8.59544 
1.24882 5.40061 -16.5217 1.56071 4.93398 -7.69127 1.34444 5.38525 -15.7927 
1.50889 4.79554 -6.83015 1.37635 5.37856 -14.9333 1.45946 4.64369 -5.97125 
1.37387 5.37438 -14.1422 1.39194 4.4584 -5.12947 1.32912 4.22632 -4.30225 
1.24914 3.95841 -3.47552 1.14957 3.63418 -2.60682 1.06182 3.30389 -1.77536 
0.890813 3.10411 -1.23045 0.678495 3.23966 -28.5906 0.732696 3.56149 -27.8468 
0.312592 3.35409 -28.4185 0.193039 3.62425 -27.839 0.341256 4.19234 -26.3829 
0.357873 4.46633 -25.5417 0.369021 4.70072 -24.6965 0.384214 4.89464 -23.8368 
0.401607 5.06445 -22.9582 0.419365 5.19293 -22.0531 0.434628 5.29431 -21.1205 
0.447782 5.38431 -20.1583 0.455236 5.44008 -19.1599 0.468386 5.48891 -18.0855 
0.637033 5.49285 -16.9978 0.696999 5.5015 -15.9841 0.293699 5.52836 -17.1427 
0.343256 5.53491 -16.1455 0.41994 5.53511 -14.7899 0.381035 5.52474 -13.8235 
0.364131 5.51579 -12.9052 0.332346 5.49546 -11.8793 0.318066 5.44436 -10.8599 
0.303506 5.38578 -9.85575 0.291429 5.30991 -8.86172 0.276842 5.19898 -7.90018 
0.264144 5.05416 -6.98728 0.263376 4.89561 -6.08433 0.252566 4.68376 -5.20858 
0.249365 4.43955 -4.3513 0.24093 4.14641 -3.47127 0.229014 3.76325 -2.49349 
0.300845 3.38206 -1.59986 0.128821 3.49432 -1.84121 0.371815 3.88941 -27.1797 
0.454302 3.56488 -27.9313 3.14395 2.64907 -3.36026 2.71027 2.21078 -1.84052 
3.40486 2.87003 -4.37761 3.59102 3.04818 -5.32076 3.72242 3.20681 -6.16948 
3.84143 3.32941 -7.11071 3.92224 3.47545 -8.18792 4.02256 3.53544 -9.31079 
4.07341 3.58886 -10.3439 4.1286 3.60686 -11.3377 4.17051 3.60736 -12.3206 
4.20907 3.59384 -13.3552 4.24844 3.57954 -14.3915 4.26566 3.56311 -15.4961 
4.2521 3.55461 -16.5437 4.24172 3.53647 -17.6143 4.2621 3.47575 -18.4704 
4.15852 3.5238 -19.3774 4.06836 3.51052 -20.4846 4.00157 3.43871 -21.4908 
3.91226 3.35531 -22.4685 3.77969 3.25141 -23.4307 3.63603 3.13268 -24.3342 
3.47729 2.99078 -25.1747 3.25181 2.82547 -26.1035 2.98051 2.59764 -27.0845 
2.56004 2.31035 -28.3198 3.98212 3.68591 -19.8334 2.43075 2.10376 -28.8427 
1.42587 3.20128 -1.84444 1.85153 3.82525 -3.7598 1.63797 3.15683 -1.97269 
1.58451 2.92379 -1.39673 1.96048 4.05528 -4.53878 2.06665 4.24884 -5.35254 
2.15034 4.41225 -6.19508 2.23034 4.5507 -7.02889 1.45007 2.98082 -1.40175 
2.29285 4.66978 -7.90144 2.33197 4.75843 -8.80065 2.36197 4.83275 -9.71616 
2.38821 4.89367 -10.6584 2.37198 4.93854 -11.6587 2.34482 4.9909 -12.7224 
2.33322 5.02727 -13.8012 2.31619 5.04031 -14.8874 2.29511 5.05038 -15.9269 
2.24463 5.04612 -17.6057 2.21729 5.01931 -18.6304 2.18064 4.98689 -19.6576 
2.14804 4.91614 -20.6684 2.10131 4.83221 -21.5739 2.06029 4.73493 -22.4898 
2.00091 4.59103 -23.3854 1.91181 4.41159 -24.3 1.9879 4.19293 -25.0026 
1.86922 4.01739 -25.7197 2.20712 5.08548 -16.7611 1.75151 3.76122 -26.5622 
1.57571 3.4355 -27.5008 1.46219 3.08347 -28.3708 1.43322 2.87973 -28.8269 
1.36645 3.22236 -28.1574 1.70132 4.24923 -25.2283 1.30698 3.43834 -27.737 
1.57104 4.01964 -26.0921 1.45673 3.72608 -26.9528 1.79691 3.57642 -3.10336 
0.96356 5.45006 -12.9139 0.981862 5.41493 -11.7747 0.954735 5.36589 -10.6408 
0.938154 5.29204 -9.61042 0.915814 5.21462 -8.64403 0.888176 5.09299 -7.73089 
0.859148 4.95016 -6.83121 0.838028 4.79149 -5.94547 0.804928 4.58874 -5.0919 
0.775693 4.34522 -4.25019 0.72704 4.06973 -3.42298 0.682024 3.78089 -2.65285 
0.959674 5.46677 -13.9552 2.36662 1.91274 -0.814456 2.35237 1.9997 -0.934705 
1.25049 2.63642 -0.538879 1.62761 2.5599 -0.69027 2.76172 2.99784 -3.26388 
2.36202 2.42596 -1.57461 3.00768 3.27441 -4.36425 3.19488 3.47984 -5.3296 
3.3716 3.70706 -6.68181 3.45328 3.81413 -7.45759 3.5626 3.95224 -8.86416 
3.60678 4.00952 -9.7522 3.64871 4.04858 -10.6877 3.70188 4.06986 -11.6614 
3.74016 4.07708 -12.7031 3.78002 4.06025 -13.6771 3.81401 4.04502 -14.6879 
3.83228 4.02234 -15.6993 3.8257 4.00488 -16.7291 3.33803 3.56723 -6.01932 
3.48016 3.92439 -8.15784 3.81856 3.98324 -17.7444 3.79855 3.9737 -18.6571 
0.553823 3.27747 -1.45531 0.7223 3.31671 -1.60679 2.47103 1.75689 -0.756355 
2.57555 2.95484 -27.1607 2.28581 2.37052 -28.6964 2.1342 2.78622 -28.1887 
2.84184 3.22721 -26.1226 3.02742 3.43117 -25.2333 3.14578 3.58442 -24.4783 
3.26103 3.73899 -23.6191 3.34186 3.88359 -22.7593 3.40969 3.97129 -21.8716 
3.45131 4.05813 -20.9375 3.44478 4.20281 -19.8908 3.44837 4.27475 -18.7722 
3.45518 4.29698 -17.905 2.02401 2.44302 -28.9364 1.95353 1.39247 -29.9673 
2.01632 1.32512 -29.9678 1.99263 1.51614 -29.9675 1.86228 1.53166 -29.9676 
1.78141 1.19462 -29.967 1.84185 1.62461 -29.9677 1.52757 1.04246 -29.969 
1.73432 1.64485 -29.968 1.31768 0.922763 -29.9692 1.71994 1.76181 -29.9679 
1.12474 0.794573 -29.9694 1.62854 1.80125 -29.968 0.954631 0.678128 -29.9695 
1.60684 1.92253 -29.9682 0.762313 0.582413 -29.9672 1.48533 1.91938 -29.968 
0.601962 0.486837 -29.9665 1.44138 2.00568 -29.9648 0.465387 0.406486 -29.9528 
1.34618 2.02438 -29.956 0.336132 0.328568 -29.9462 1.25463 2.08287 -29.9671 
0.206168 0.244119 -29.9619 0.101962 0.174424 -29.9691 1.06549 2.16762 -29.9679 
1.00746 2.2389 -29.9679 0.911836 2.21113 -29.9681 0.100439 0.298437 -29.9585 
0.825426 2.2552 -29.9681 0.111314 0.459913 -29.9368 0.775096 2.3473 -29.9681 
0.116799 0.613457 -29.9464 0.697803 2.35788 -29.9678 0.11532 0.765674 -29.9695 
0.123023 0.963776 -29.9563 0.131446 1.17819 -29.9376 0.500097 2.37564 -29.9679 
0.134144 1.38868 -29.9615 0.369996 2.3416 -29.968 0.139675 1.62543 -29.9663 
0.238904 2.337 -29.9596 0.128827 1.86425 -29.9651 0.147942 2.44399 -29.9546 
1.75917 1.34539 -29.9677 1.6294 1.42904 -29.968 1.35233 1.10057 -29.9611 
1.1572 0.985311 -29.957 1.50245 1.5262 -29.9656 0.984916 0.857613 -29.9634 
1.36665 1.64526 -29.9638 0.803325 0.746342 -29.9668 0.62393 0.649169 -29.9646 
1.28206 1.77644 -29.9516 0.479005 0.556429 -29.9475 0.356927 0.479364 -29.9282 
1.14654 1.80758 -29.9528 0.21793 0.392731 -29.9395 1.07166 1.95457 -29.9675 
0.910436 1.9971 -29.9681 0.761238 1.95322 -29.9652 0.676874 2.08843 -29.962 
0.237404 0.554652 -29.9161 0.242569 0.690799 -29.9615 0.248113 0.864175 -29.9693 
0.557422 2.18091 -29.9627 0.26185 1.08546 -29.935 0.269454 1.29838 -29.9237 
0.405177 2.07208 -29.9683 0.276582 1.52877 -29.9403 0.25405 2.05872 -29.963 
0.303868 1.80643 -29.9483 1.18639 1.16906 -29.9497 1.00286 1.06047 -29.9526 
0.825548 0.94006 -29.9583 1.10813 1.53456 -29.9517 0.648172 0.821061 -29.9617 
0.490469 0.710159 -29.9462 0.364377 0.624197 -29.9458 0.937904 1.67408 -29.9562 
0.744547 1.69927 -29.9627 0.613374 1.78499 -29.9612 0.482591 1.89905 -29.9589 
0.373991 0.79186 -29.9591 0.392554 0.98404 -29.9677 0.404619 1.20452 -29.958 
0.409677 1.4076 -29.9242 0.448856 1.66383 -29.9342 1.04083 1.26478 -29.9496 
0.850523 1.13601 -29.9519 0.681269 1.01157 -29.9571 0.890716 1.37864 -29.9598 
0.517188 0.895338 -29.9541 0.574338 1.53263 -29.9621 0.539497 1.1055 -29.961 
0.553564 1.30427 -29.9641 0.738092 1.45534 -29.9543 0.70538 1.228 -29.954 
1.24046 1.36778 -29.9484 0.122608 2.1395 -29.9428 1.39599 1.28962 -29.9574 
1.56319 1.22484 -29.9688 0.633295 2.47861 -29.9676 1.20525 2.22466 -29.9682 
1.77644 2.65031 -28.8842 0.0994224 3.07447 -29.0638 2.25581 1.66745 -29.3039 
2.21159 1.74694 -29.3291 2.32247 1.60613 -29.1923 2.53363 1.85652 -28.6007 
2.09509 1.8261 -29.3874 2.40803 2.0069 -28.5483 2.66796 1.75187 -28.5452 
2.01506 1.62985 -29.4077 2.06901 2.01156 -28.9679 2.45639 2.26511 -28.0355 
2.58386 2.02056 -28.0991 2.05567 1.48005 -29.2734 1.81252 1.56039 -29.3327 
2.55508 2.58473 -27.3307 2.93747 2.40508 -26.9808 2.92586 2.00124 -27.6912 
1.74571 1.31902 -29.3783 2.52454 1.6619 -28.5231 1.64511 1.66613 -29.3205 
1.5248 1.38133 -29.4673 1.7625 1.93563 -29.2294 1.90489 2.12637 -29.2679 
2.21944 2.48635 -28.0714 2.81473 2.8642 -26.3862 2.38831 2.91621 -26.9574 
3.23339 2.67258 -25.8557 3.34436 2.42126 -26.1517 1.42004 1.10777 -29.5745 
2.20175 1.5262 -28.6566 1.31758 0.896624 -29.6495 2.70156 1.86102 -27.5994 
1.2824 1.23923 -29.5271 1.35558 1.49821 -29.4479 1.58934 1.9727 -29.1533 
1.71132 2.12217 -29.2506 3.1338 2.96842 -25.4526 2.68842 3.21149 -25.8526 
2.14304 2.96655 -27.4167 1.82897 2.61617 -28.3057 3.52021 2.48512 -25.4669 
3.33646 2.68917 -25.175 3.23192 2.16627 -26.775 1.23884 1.01838 -29.577 
1.74575 1.20404 -29.0464 2.22524 1.54978 -28.2054 1.20196 0.807892 -29.6028 
3.07159 2.13146 -26.5356 2.64062 1.83129 -27.2237 1.12766 1.35045 -29.5071 
1.22157 1.69343 -29.3392 1.32212 2.10573 -29.1626 1.45078 2.10417 -29.3884 
1.77031 2.37355 -29.0759 3.1469 3.26837 -24.6001 2.83984 3.39918 -25.019 
1.81437 2.97884 -27.7389 3.70286 2.57702 -24.6044 3.41552 3.12539 -24.0683 
3.58623 2.86074 -24.0332 1.40785 1.07656 -29.1557 1.81322 1.29889 -28.5755 
2.21069 1.59577 -27.7972 1.00318 0.699731 -29.6234 3.30236 2.24599 -25.6145 
2.92746 2.01841 -26.2619 2.53122 1.78664 -26.8703 0.886056 1.13038 -29.5217 
0.952604 1.4407 -29.5228 1.06375 1.84989 -29.2551 1.13352 2.27469 -29.2613 
3.26418 3.41255 -23.7122 2.96697 3.54841 -24.2152 2.36128 3.8352 -24.741 
1.71491 3.62478 -26.3695 1.50801 2.82518 -28.4341 1.49019 2.44772 -29.0436 
3.8858 2.6711 -23.544 3.73723 2.98981 -23.0906 3.52229 3.24894 -23.1419 
0.851056 0.827637 -29.5888 1.21759 0.887119 -29.2812 1.5341 1.10881 -28.7332 
1.94109 1.41124 -27.9473 0.81906 0.587663 -29.6481 3.49318 2.36672 -24.6871 
3.08716 2.1783 -25.3082 2.75996 1.94491 -25.9814 2.28444 1.74179 -26.5895 
0.649666 0.943173 -29.6143 0.73813 1.25249 -29.5527 0.784279 1.56348 -29.4756 
0.874333 1.96674 -29.3221 1.32555 2.43072 -29.3282 1.02906 2.41356 -29.433 
1.56898 2.32004 -29.3341 3.33474 3.53907 -22.8014 3.04389 3.66701 -23.3489 
2.0334 4.01247 -24.4935 1.61674 3.91023 -25.7921 1.28681 3.06411 -28.0616 
1.72519 4.10715 -24.9038 4.09173 2.74206 -22.4028 3.85884 3.03892 -22.0793 
3.58781 3.32084 -22.1469 0.668744 0.661669 -29.6497 1.00828 0.765194 -29.3237 
1.30174 0.976521 -28.8029 1.66219 1.24693 -28.1129 0.583905 0.453646 -29.7353 
3.32394 2.27532 -24.3853 3.64299 2.46397 -23.7481 2.97873 2.06304 -24.9219 
1.77998 1.35889 -27.4016 2.11622 1.61824 -26.2675 0.515466 1.11594 -29.4486 
0.503237 0.763094 -29.6745 0.603229 1.41197 -29.5228 0.617555 1.65806 -29.5016 
0.637626 1.95256 -29.431 0.988086 2.58941 -29.4052 2.8141 3.89424 -23.1014 
2.0286 4.25552 -23.3356 1.70029 4.33408 -24.0833 1.03768 3.06087 -28.2333 
1.23387 2.5925 -29.2787 3.94469 3.11554 -21.0745 3.67257 3.41006 -21.1475 
0.507111 0.563926 -29.6741 0.815383 0.645799 -29.3779 1.06471 0.828507 -28.8812 
1.38642 1.06027 -28.2281 0.446236 0.38341 -29.7196 3.4489 2.3614 -23.4162 
3.1355 2.16764 -24.0491 3.76039 2.54182 -22.8264 2.7188 1.96596 -25.0168 
2.44684 1.70646 -25.3636 1.76862 1.38749 -26.7349 1.9624 1.59795 -25.6239 
1.43703 1.13347 -27.619 0.328125 0.927593 -29.6361 0.42937 1.32334 -29.4793 
0.423099 1.50685 -29.5611 0.441894 1.78587 -29.4548 0.491169 2.10188 -29.4104 
0.860402 2.54511 -29.3758 0.695285 2.43055 -29.2898 3.44347 3.68739 -20.8373 
2.85329 3.9978 -22.2606 2.17306 4.36687 -22.4971 1.74275 4.4293 -23.0982 
1.34157 4.45746 -23.5941 1.12553 4.00834 -25.9502 0.857257 3.29929 -27.9138 
0.866404 2.93439 -28.7644 4.19093 2.86726 -20.5814 3.70715 3.43992 -19.954 
4.01156 3.22206 -20.0006 0.329736 0.543663 -29.6787 0.82199 0.701629 -28.9754 
0.559167 0.553793 -29.4302 1.12409 0.901423 -28.3602 0.321831 0.388513 -29.5961 
3.55624 2.42139 -22.488 3.28179 2.24937 -23.1039 2.95433 2.08285 -23.6956 
2.30092 1.6267 -24.9841 1.46499 1.20538 -26.8486 1.47814 1.3486 -25.8317 
1.08905 0.96181 -27.7511 0.142841 0.797255 -29.6942 0.157318 0.63567 -29.6775 
0.278212 1.89885 -29.513 0.272787 2.22829 -29.4117 0.546493 2.42973 -29.4216 
0.402055 2.48752 -29.3391 3.16226 3.97717 -20.6093 3.55764 3.73134 -19.6432 
2.87645 4.10042 -21.3953 2.15091 4.43361 -21.6283 1.51127 4.6122 -22.7116 
0.649511 3.02777 -28.6051 0.531282 0.516466 -29.1281 0.203722 0.215399 -29.7269 
3.27573 2.38379 -22.1916 2.9696 2.1607 -22.7164 4.01042 2.6119 -20.889 
1.21656 1.0684 -26.7392 1.63731 1.44025 -24.4819 1.99089 1.58829 -23.5982 
0.121533 1.20219 -29.6627 0.101768 0.931307 -29.7024 0.123596 1.41299 -29.6956 
0.132799 1.75758 -29.6254 0.102854 2.01822 -29.4967 0.227455 2.52359 -29.2984 
0.49693 2.77186 -29.2621 0.372046 2.84424 -29.0723 2.91453 4.18678 -20.5009 
3.20598 4.02729 -19.3193 3.45871 3.91446 -18.8094 2.25758 4.54646 -20.6434 
1.89016 4.66159 -21.0739 1.25586 4.7739 -22.168 0.487835 4.50813 -24.4298 
0.506976 4.72623 -23.5024 0.597759 3.50558 -27.6029 4.33619 2.95129 -18.3153 
4.06908 3.11512 -18.1587 0.0956497 0.308529 -29.7101 0.470374 0.609389 -28.738 
3.38441 2.4081 -21.097 3.68097 2.51412 -20.5515 3.09368 2.17344 -21.6994 
2.78299 1.99808 -22.3222 3.96984 2.66928 -19.9395 2.30424 1.84074 -22.8887 
1.16348 1.05296 -25.634 1.49477 1.49434 -23.4463 1.19839 1.16863 -24.2468 
0.574353 0.780205 -27.2567 0.211462 2.83663 -29.2297 3.23128 4.10128 -18.3626 
3.58644 3.8145 -18.2684 1.93625 4.67649 -20.2581 1.62517 4.80255 -20.8244 
1.30824 4.79893 -21.4711 0.985213 4.91915 -21.6285 0.640292 4.95511 -22.1878 
0.251973 3.70122 -27.3211 0.340495 3.16609 -28.351 4.29569 2.99314 -17.3908 
0.287124 0.382719 -29.0055 0.140846 0.224952 -29.4547 3.14885 2.20243 -20.6321 
3.43458 2.36616 -20.0736 3.71057 2.52667 -19.54 3.99261 2.68877 -18.9392 
2.52091 1.87061 -21.6225 0.735102 0.789022 -26.3637 0.797733 0.866087 -25.2939 
0.830281 0.924301 -24.2406 0.400664 0.517965 -27.7202 0.457813 0.582018 -26.8892 
0.152471 1.03996 -29.3652 0.141579 0.771941 -29.4292 0.19056 2.11958 -29.1099 
0.184775 2.55973 -28.8747 3.28259 4.05484 -17.4581 2.98222 4.2631 -17.7425 
2.62567 4.4562 -18.1282 2.27285 4.52996 -18.4202 1.96479 4.73036 -19.1676 
1.02022 4.99414 -20.6791 0.69599 5.01156 -21.1581 4.18052 3.17782 -16.4161 
0.161736 0.357783 -28.1218 3.17487 2.22 -19.5802 3.45367 2.43508 -19.1165 
3.73172 2.53953 -18.4807 4.07226 2.66213 -17.9936 2.51021 1.8411 -20.409 
0.505813 0.64174 -25.8919 0.54541 0.694239 -24.8144 0.799163 1.04506 -22.81 
1.50058 1.35453 -21.5662 2.21364 1.67979 -19.914 0.580065 0.77563 -23.6384 
0.186254 0.4073 -27.3587 0.203408 0.455139 -26.4596 0.293231 1.67342 -28.7907 
0.237859 2.00223 -28.652 0.178596 1.32548 -28.8677 0.190643 1.05747 -28.9694 
0.196211 0.85982 -28.9977 0.254852 2.35868 -28.4106 0.23864 2.68969 -28.3274 
0.232628 3.1213 -27.9869 3.21601 4.1018 -16.4669 2.31881 4.64234 -17.417 
1.61877 4.85319 -18.9995 1.34752 5.00753 -19.1875 1.03586 5.05782 -19.7161 
0.379369 4.74697 -22.7344 0.273867 3.70862 -26.9376 0.323795 4.89891 -21.8181 
4.38448 2.87206 -16.4543 4.18023 3.20055 -15.3915 3.57357 3.86429 -15.2195 
0.186382 0.360745 -28.5787 3.14365 2.23152 -18.3649 2.76147 2.15778 -18.7794 
3.44755 2.38652 -17.9865 3.73851 2.54541 -17.3735 3.99615 2.8105 -16.8766 
2.47931 1.89489 -19.2449 0.22811 0.504688 -25.4029 0.247882 0.541146 -24.2285 
0.92964 0.950692 -21.5409 0.585479 0.781313 -22.4559 1.26075 1.14706 -20.8094 
1.58033 1.32555 -20.0949 2.20976 1.67707 -18.6936 0.262545 0.559165 -22.9768 
0.265882 1.72472 -28.2936 0.262795 2.13706 -28.0883 0.235917 2.62347 -27.6434 
0.23762 1.44424 -28.3068 0.218768 1.12458 -28.4456 0.225766 0.841256 -28.5121 
0.204382 0.577035 -28.6454 0.282253 2.9818 -27.5373 3.10431 4.17174 -15.4303 
2.33321 4.63242 -16.4181 1.97132 4.81224 -17.2141 1.40385 5.03695 -18.1973 
1.06467 5.10156 -18.7524 0.730765 5.09215 -19.1969 0.313798 4.27726 -24.3365 
0.307394 4.06073 -25.2769 0.473734 4.40451 -23.3338 0.30189 3.54597 -26.7313 
0.325728 4.98605 -20.8307 0.328663 4.66044 -21.4294 4.34081 2.97581 -14.9727 
4.0903 3.17408 -14.2188 3.94664 3.48622 -13.8966 3.73458 3.71913 -13.6644 
2.90093 2.07118 -18.0014 3.47663 2.39617 -16.8445 3.74437 2.5504 -16.2795 
4.02172 2.70373 -15.7374 2.54007 1.8261 -17.9606 0.378001 0.641148 -20.9849 
0.907603 0.981761 -20.2411 1.25907 1.14647 -19.5273 1.88155 1.55802 -18.064 
2.27474 1.63732 -17.3854 0.247135 1.8056 -27.6226 0.315344 3.29328 -26.5963 
0.280926 1.44033 -27.7602 0.217949 1.13346 -27.7286 2.7538 4.40845 -14.7271 
2.33207 4.56802 -15.2339 1.97239 4.80611 -16.0864 1.724 4.95935 -16.7173 
1.39723 5.11642 -17.2756 0.304848 4.16507 -23.0769 0.328925 4.72936 -20.3995 
0.351381 4.4043 -21.015 4.31715 2.99351 -13.9321 4.13775 3.23882 -13.2779 
3.90522 3.49999 -12.8599 3.46252 3.99047 -13.5249 3.68898 3.72587 -12.4708 
2.83139 2.0809 -17.0544 3.41678 2.43445 -15.6804 3.76195 2.55609 -15.1993 
4.03683 2.70939 -14.6693 0.379812 0.644487 -19.6445 0.780548 0.946055 -18.998 
1.25466 1.14692 -18.22 1.58407 1.33255 -17.5371 0.311742 2.23591 -26.7048 
0.28966 1.82002 -27.0091 0.32412 2.6993 -26.0927 0.329203 3.07442 -26.0197 
0.270585 0.740682 -27.2674 2.42026 4.58268 -14.0038 2.80007 4.36591 -13.6214 
2.0346 4.78497 -14.2946 1.64615 4.96969 -15.0861 1.49656 5.02901 -16.1165 
3.213 4.10541 -12.8988 0.402359 5.19418 -17.5346 0.331765 5.09671 -18.7992 
0.331703 4.77675 -19.3731 0.326802 3.97435 -22.6693 0.479857 4.02166 -21.7091 
0.330331 4.45195 -19.9539 0.334231 4.12185 -20.5598 4.30116 2.95417 -12.8452 
4.10608 3.20823 -12.1768 3.86246 3.51751 -11.8185 3.45622 3.90702 -12.1677 
3.64378 3.72705 -11.4304 0.293459 0.827485 -26.373 3.18844 2.22579 -15.2054 
2.90565 2.07849 -15.7348 3.46163 2.35169 -14.66 3.76085 2.55303 -14.1308 
4.02844 2.70773 -13.618 0.379812 0.644561 -18.3064 0.935175 0.962965 -17.6004 
1.26166 1.14871 -16.9187 0.325423 0.904106 -25.325 0.342248 0.964753 -24.1482 
0.381386 2.55567 -25.553 0.431584 3.1137 -25.157 0.34645 1.25373 -26.7199 
2.44898 4.55538 -12.8262 2.81394 4.33076 -12.4108 1.6308 4.98485 -13.6949 
1.28767 5.11542 -14.646 3.19288 4.08604 -11.866 0.440094 4.82719 -18.3307 
0.338563 4.48387 -18.9008 0.295259 3.61553 -23.3918 0.376996 3.68521 -22.3334 
0.338417 4.15947 -19.4871 4.27785 2.84613 -11.9102 3.82717 3.48252 -10.8246 
3.41955 3.88853 -11.1824 3.55848 3.64032 -10.1838 0.363642 1.21583 -25.7351 
3.1948 2.24094 -14.0946 2.90406 2.08362 -14.6133 3.47848 2.39672 -13.5746 
3.7516 2.55097 -13.0594 4.01547 2.70009 -12.5633 2.51677 1.86047 -14.5255 
0.268672 0.984325 -23.1156 0.363538 1.02789 -21.5964 0.60993 0.753743 -16.944 
0.867287 1.01347 -16.3956 1.60859 1.35704 -14.8215 2.19686 1.70052 -13.637 
0.366207 1.03599 -20.2695 0.393753 1.38222 -24.5215 0.37581 1.34862 -23.427 
0.36058 2.7697 -24.4261 0.47883 3.2988 -24.0922 2.48387 4.5158 -11.7301 
1.70872 4.88322 -12.5188 2.81531 4.30823 -11.3085 1.28588 5.08367 -13.6899 
3.12572 4.06538 -10.8083 0.411063 4.84451 -17.3256 0.335973 4.49967 -17.7755 
0.338103 4.18482 -18.4081 0.348461 3.85605 -18.9726 0.357102 3.51379 -19.5529 
4.00522 3.21589 -10.2019 3.72951 3.42329 -9.69477 3.37944 3.8528 -10.2472 
3.47094 2.38959 -12.4708 3.73718 2.54258 -11.9893 3.99686 2.68953 -11.5164 
2.48061 1.92826 -13.2544 0.462799 1.36903 -22.2187 0.36294 1.41434 -20.8664 
0.264612 0.605141 -16.3255 0.317789 1.09234 -18.8904 0.601877 0.770489 -15.634 
0.899027 1.01949 -15.114 1.2548 1.26223 -14.4363 1.58617 1.33353 -13.6978 
2.28589 1.65825 -12.4073 0.467571 1.42237 -19.6219 0.32999 1.74215 -22.8565 
0.348426 2.63564 -23.5302 2.48904 4.48182 -10.7209 2.07467 4.69009 -11.089 
1.74994 4.86559 -11.5546 1.37914 5.0101 -11.8251 2.80788 4.27621 -10.3179 
0.970979 5.17437 -13.5668 0.989659 5.1313 -12.3769 0.327866 5.1802 -14.6235 
0.408593 4.81912 -16.0515 0.337717 4.53107 -16.6666 0.335681 4.19425 -17.3009 
0.336743 3.87159 -17.8782 0.344238 3.15071 -21.2621 0.355323 3.17873 -20.1073 
0.356684 3.5321 -18.4329 0.370499 3.19167 -18.9511 4.19382 2.88624 -9.76153 
3.93811 3.1361 -9.17624 3.66677 3.32787 -8.53845 3.48832 3.59635 -8.49316 
3.17539 2.2322 -11.8781 2.88804 2.08123 -12.3643 3.4436 2.32989 -11.3725 
2.51501 1.88004 -12.1093 0.360044 1.78292 -21.4173 0.363342 1.7982 -20.1396 
0.436617 1.07506 -17.7173 0.400104 0.575069 -15.159 0.612798 0.883457 -14.3311 
0.905259 0.969387 -13.5587 1.2641 1.14953 -13.0212 1.60019 1.34203 -12.3796 
1.91804 1.61491 -11.7892 0.384584 1.79527 -18.9425 0.36096 2.08974 -23.2521 
0.361881 2.1335 -22.0601 2.41512 4.42614 -9.79331 2.06776 4.64922 -10.0932 
1.73547 4.79899 -10.5602 1.41422 4.97572 -10.8881 1.11242 5.06422 -11.3934 
2.78219 4.22131 -9.38905 0.790765 5.12167 -11.2621 0.381335 4.87261 -15.0022 
0.336758 4.51955 -15.6354 0.336344 3.87558 -16.7752 0.412252 3.54626 -17.3612 
0.350218 2.84086 -20.6751 0.365586 2.86278 -19.4574 0.36422 3.22978 -17.7459 
0.37754 2.88153 -18.108 4.10656 2.89817 -8.76452 3.87088 3.07102 -8.07595 
3.59475 3.35699 -7.52193 3.18646 3.6743 -8.54927 3.38506 3.63622 -7.80858 
3.16476 2.2252 -10.8073 3.42271 2.37764 -10.3262 3.71237 2.54996 -10.323 
3.93648 2.65169 -9.469 0.384534 2.17332 -20.7489 0.41574 2.16515 -19.5627 
0.338855 1.03972 -16.3511 0.472708 1.3512 -16.8752 0.297903 0.633828 -13.8267 
0.582724 0.754937 -12.97 0.937655 0.9625 -12.3497 1.27008 1.15333 -11.7143 
1.59739 1.34066 -11.1154 1.90712 1.51307 -10.6288 2.1165 1.74299 -9.95773 
0.482628 2.18759 -18.4302 0.451171 2.48448 -21.318 2.45053 4.35955 -8.82004 
2.04629 4.58268 -9.12806 1.69358 4.7257 -9.55683 1.4087 4.85328 -9.96487 
1.11529 5.00639 -10.3776 2.74845 4.15804 -8.43587 0.674023 4.94309 -10.1127 
3.05517 3.92016 -8.04141 0.242389 5.18534 -13.4181 0.311121 4.86644 -13.979 
0.34074 4.51829 -14.5231 0.35 3.86907 -15.6811 0.360535 3.54162 -16.2847 
0.356496 2.51408 -20.033 0.407394 2.56303 -18.7838 0.500828 2.56654 -17.4423 
4.07369 2.72734 -8.11224 4.00335 2.77307 -7.37389 3.80514 3.00704 -7.24298 
3.51731 3.18187 -6.45277 3.12881 3.72871 -7.20753 3.15786 2.19841 -9.77108 
3.40373 2.33809 -9.34293 2.48215 1.85411 -9.7783 0.335971 1.03859 -15.0914 
0.438979 1.37948 -15.6493 0.421551 1.79392 -16.285 0.266006 0.578618 -12.3137 
0.358446 2.19113 -16.88 0.603031 0.775301 -11.6646 0.923097 0.995278 -11.0377 
1.26654 1.15261 -10.4442 1.59255 1.33637 -9.87858 1.80052 1.55929 -9.33687 
2.12533 1.75007 -8.68383 2.41111 4.27861 -7.89508 2.0085 4.50037 -8.22294 
1.11412 4.93053 -9.3198 2.71089 4.05792 -7.48666 0.37048 5.0732 -9.60549 
0.389369 4.83947 -12.7567 0.341993 4.5118 -13.4158 0.344803 4.19329 -13.9632 
0.399961 3.87991 -14.4228 0.358916 3.538 -15.1582 0.471838 3.06006 -15.1313 
3.40332 3.05021 -5.54717 2.84248 3.81895 -6.67404 2.87212 2.0591 -9.14303 
3.78308 2.55118 -7.46533 2.56723 1.89 -8.70021 0.348772 1.05945 -13.6339 
0.332582 1.42523 -14.3359 0.364272 1.79415 -14.9812 0.354438 2.16741 -15.5541 
0.298049 0.638609 -11.1553 0.62399 0.884276 -10.3737 0.868992 0.949655 -9.58575 
1.1999 1.06523 -9.07571 1.55597 1.28452 -8.52232 1.85097 1.49365 -8.03664 
2.13501 1.64907 -7.58926 2.31973 4.12478 -6.96467 1.96649 4.34375 -7.28716 
1.64934 4.54357 -7.75862 0.375735 5.28495 -11.5016 0.414201 5.01796 -8.54811 
0.771689 4.92291 -8.12048 0.37216 5.03258 -11.8007 0.333234 4.50103 -12.3436 
0.34485 4.18919 -12.8517 0.405453 3.82566 -13.4772 0.394882 3.47684 -14.1533 
0.397157 2.54776 -15.006 0.355832 2.85832 -14.1545 3.16542 3.28821 -5.51053 
3.27071 2.87257 -4.65489 2.9139 3.42468 -5.37979 2.50128 3.88263 -6.19391 
2.99452 2.12587 -7.54529 2.78419 1.97889 -8.10671 3.45568 2.41898 -7.03079 
3.7525 2.50579 -6.79131 2.46671 1.82236 -7.54596 0.278668 1.01299 -12.2538 
0.474644 1.38537 -12.9855 0.479908 1.82538 -13.8094 0.398661 2.19199 -14.1148 
0.26608 0.577717 -9.63431 0.602269 0.769647 -9.00751 0.857795 0.94905 -8.33792 
1.22815 1.10365 -7.82888 1.53603 1.28723 -7.35292 1.81746 1.4375 -6.89425 
2.05674 1.59244 -6.48736 1.9 4.28604 -6.41506 1.59781 4.46707 -6.81563 
1.33684 4.66055 -7.20689 0.337872 4.6845 -11.2915 0.344363 4.17236 -11.7582 
0.347181 3.85936 -12.2763 0.355796 3.53246 -12.8487 0.353098 3.20326 -13.4831 
0.353863 2.51965 -13.6693 0.351651 2.86799 -12.987 2.99085 3.11395 -4.64881 
2.31868 3.72333 -5.12549 2.57252 3.22854 -4.08202 2.13999 3.98862 -5.59171 
2.66822 1.9976 -7.04583 3.36504 2.29815 -5.96387 3.61574 2.37376 -5.58031 
2.39006 1.76351 -6.41054 0.366438 1.04253 -11.0087 0.483403 1.40362 -11.6987 
0.358179 1.79763 -12.4018 0.355041 2.16384 -12.9916 0.295482 0.614253 -8.58119 
0.860559 0.991474 -7.09901 1.19642 1.08757 -6.57179 1.45164 1.27555 -6.08618 
1.7512 1.32715 -5.72472 1.98462 1.50328 -5.34302 1.81508 4.1317 -5.54529 
1.56939 4.31614 -5.84212 1.29051 4.50372 -6.21156 1.0304 4.64346 -6.63016 
0.389319 4.72722 -9.78537 0.325822 4.66497 -8.71733 0.407114 4.7573 -6.69286 
0.683436 4.56313 -6.21689 0.34392 4.40113 -10.1227 0.33886 4.14945 -10.6573 
0.347065 3.85068 -11.1529 0.420805 3.52077 -11.7546 0.376585 3.1894 -12.3405 
0.350625 2.51784 -12.4211 0.420505 2.84835 -11.798 3.35881 2.25532 -3.713 
3.36237 2.28258 -4.72097 2.7195 2.82584 -3.44431 2.81142 2.26032 -2.54735 
2.30397 3.48886 -4.22229 2.0599 3.70266 -4.39619 1.72921 3.94075 -4.67721 
3.03128 2.11224 -5.3261 3.20879 2.20125 -5.01739 2.28078 1.68115 -5.37344 
0.498997 1.43203 -10.4168 0.342657 1.05461 -9.53277 0.357057 1.80004 -11.0784 
0.369944 0.690684 -7.40433 0.427727 0.827811 -6.35949 0.848802 0.909979 -5.87755 
1.14175 1.03176 -5.40211 1.37441 1.21654 -4.91303 1.60985 1.28723 -4.61246 
1.47147 4.13961 -4.98769 0.328081 4.39524 -9.14878 0.324101 4.32913 -8.12086 
0.426417 4.61748 -5.8675 0.673888 4.47418 -5.35113 0.335838 4.11733 -9.56748 
0.338186 3.8214 -10.0387 0.351307 3.50909 -10.5516 0.427719 2.45885 -11.114 
3.0707 2.06844 -2.76374 3.11551 2.16352 -3.78851 2.97652 2.14101 -4.16367 
2.2638 2.92716 -2.86926 2.30097 2.60054 -2.32286 2.50798 2.36918 -2.2365 
2.50666 1.94815 -1.65844 1.63021 3.72686 -3.83571 1.42346 3.91532 -4.12455 
2.3897 1.7674 -4.70078 2.6487 1.92273 -4.59522 2.85466 2.00751 -4.39346 
2.00412 1.63411 -4.29986 1.7035 1.37621 -4.00082 0.37553 1.26385 -8.45765 
0.313456 1.70709 -9.70604 0.276339 0.498859 -5.97555 0.527715 0.687004 -5.20205 
0.781247 0.901336 -4.64437 1.33722 1.1373 -3.95712 1.20705 4.16072 -4.55936 
0.326179 4.06052 -8.53091 0.31196 4.45391 -6.75664 0.319125 4.22797 -7.11762 
0.32688 3.97819 -7.48387 0.353043 4.39899 -4.94856 0.640607 4.17318 -4.49615 
0.340749 3.77368 -8.90966 0.439891 3.49898 -9.22627 0.423768 3.12854 -9.85384 
0.359715 2.54428 -9.94847 0.37852 2.82259 -9.3838 2.76477 1.869 -1.94688 
2.89261 1.9798 -2.93628 2.68114 1.89983 -3.05481 2.39017 1.80571 -3.19752 
1.96518 2.67341 -1.96547 1.71854 2.90849 -2.08038 2.0416 2.41587 -1.51604 
2.21261 2.25998 -1.56236 2.31999 2.05589 -1.38035 1.50925 3.38613 -2.80107 
1.31696 3.65054 -3.27891 2.26953 1.67426 -3.5728 1.82054 1.466 -3.16594 
1.45631 1.19433 -3.02651 0.430633 1.18824 -7.1339 0.357483 1.78027 -8.52515 
0.232066 0.501636 -4.57814 0.527836 0.560281 -4.00523 0.779095 0.746858 -3.68204 
1.19248 1.01679 -2.9939 0.33083 3.70852 -7.90137 0.292287 4.32406 -5.87039 
0.332426 4.08149 -6.12661 0.311112 3.83589 -6.4499 0.331145 3.61152 -6.8437 
0.364402 4.14238 -4.05329 0.619044 3.97784 -3.60843 0.408451 3.161 -9.03092 
0.391404 2.53077 -8.57478 0.34017 2.78842 -8.17677 2.59316 1.77319 -2.03724 
2.45898 1.64277 -1.04973 2.45518 1.71906 -2.22834 2.1591 1.5533 -2.1061 
2.30702 1.83477 -1.07563 1.8879 2.5245 -1.38041 1.59717 2.47014 -1.08852 
1.81315 2.04062 -0.694901 1.20406 3.30478 -2.36658 1.9091 1.42765 -2.56834 
1.23782 0.975901 -2.06959 0.329238 1.19443 -5.88433 0.410194 1.69979 -7.28081 
0.400096 2.19059 -8.07831 0.211614 0.457686 -3.5385 0.449156 0.574692 -3.13052 
0.662718 0.715537 -2.7902 0.923539 0.802281 -2.52864 0.945083 0.870057 -2.11626 
0.322786 4.15956 -4.96359 0.302624 3.68164 -5.43819 0.342182 3.23702 -6.15811 
0.290627 3.8093 -3.02211 0.335503 2.7329 -7.00829 2.11091 1.42869 -1.10826 
1.98158 1.39389 -1.38579 1.75843 1.33088 -1.82968 1.67918 1.20249 -1.24485 
2.05482 1.77331 -0.646996 1.7825 2.24542 -0.78887 1.42954 2.55171 -1.00876 
1.45507 3.01153 -1.90713 0.859497 3.04228 -1.68248 1.11751 2.93627 -1.50337 
1.20389 0.94317 -1.50045 0.954345 0.791407 -1.41117 0.339244 1.67976 -6.0408 
0.338637 0.911785 -4.75008 0.181877 0.405726 -2.64361 0.398591 0.524052 -2.30147 
0.581435 0.633327 -2.0302 0.731373 0.689721 -1.42314 0.352165 3.02803 -6.40897 
0.236342 3.88172 -3.97769 0.307046 3.47847 -4.45804 0.350671 2.84797 -5.41595 
0.385293 2.32198 -6.14142 0.40499 2.61711 -5.86349 2.11864 1.43564 -0.789347 
1.64464 1.13039 -0.399468 1.54359 1.05698 -0.644639 1.6415 2.32245 -0.774069 
1.26798 2.59327 -0.904801 0.844113 2.7488 -0.97088 1.14724 0.873014 -1.01787 
0.916682 0.73412 -0.926991 0.716572 0.613115 -0.881718 0.34803 1.80821 -5.00705 
0.311979 1.19799 -4.22243 0.311854 0.827718 -3.57369 0.164402 0.362221 -1.87271 
0.363478 0.445568 -1.53403 0.486831 0.568946 -1.31935 0.523173 0.499127 -0.83046 
0.296278 3.51583 -2.93967 0.300129 3.3596 -3.19443 0.301977 3.16983 -3.38808 
0.324935 3.02306 -3.84942 0.407803 2.71294 -4.21368 0.194007 3.21398 -1.56715 
0.426066 3.11323 -1.45616 0.657991 3.1532 -1.6187 0.340439 2.25781 -4.99437 
1.03822 0.753171 -0.499276 1.90258 1.52237 -0.686535 1.84018 1.73402 -0.780816 
1.20367 2.15885 -0.606898 1.1079 2.62486 -0.811686 1.6373 1.81958 -0.659199 
0.873406 0.675207 -0.514662 0.691661 0.566549 -0.485011 0.526359 0.464639 -0.460338 
0.330939 0.995111 -2.60676 0.264018 0.732731 -2.64676 0.31081 0.36888 -0.735782 
0.225586 3.27959 -2.15923 0.29775 2.83766 -2.29776 0.340883 2.67684 -2.64793 
0.296144 2.55475 -3.13716 0.338466 2.17671 -3.74656 0.293043 2.19496 -2.98245 
0.279761 2.9211 -0.899719 1.5857 1.25788 -0.663089 1.55959 1.4357 -0.577826 
1.5533 2.04086 -0.715553 1.31733 1.91832 -0.686459 1.0112 1.96286 -0.67568 
1.02041 2.26502 -0.669623 1.36174 1.65298 -0.615404 0.697987 2.78546 -0.853068 
0.568726 2.74306 -0.736837 0.318921 0.322625 -0.215168 0.247468 0.665082 -1.90402 
0.164539 0.236578 -0.712156 0.160971 0.203191 -0.225627 0.231369 2.69621 -1.59463 
0.22084 2.59096 -0.858807 0.154944 2.85072 -0.787979 0.232497 2.23259 -1.41648 
0.245056 2.22231 -1.90487 0.251101 2.1312 -2.27424 0.286016 1.79246 -2.71818 
0.239142 1.76569 -2.09216 1.30381 1.08216 -0.549839 1.30751 1.27271 -0.518114 
1.04738 0.90032 -0.383439 0.869545 0.813639 -0.40843 1.09818 1.64563 -0.587046 
0.858678 2.50298 -1.08511 0.785544 1.72963 -0.6048 0.751068 2.06839 -0.764251 
0.24171 1.24092 -2.14814 0.298225 0.832932 -1.56416 0.186013 0.562442 -1.29176 
0.177887 1.90472 -0.579058 0.186658 1.72016 -0.740469 0.191154 1.77501 -1.23481 
0.275265 1.713 -1.52818 0.268322 1.37801 -1.43105 0.429433 2.75791 -0.687709 
0.887775 1.0048 -0.446038 0.67704 0.674337 -0.347831 0.673532 1.42383 -0.512988 
0.594023 2.31346 -0.691805 0.52121 1.69173 -0.509779 0.52947 2.60664 -0.869373 
0.514924 0.569393 -0.340205 0.360951 0.490915 -0.375121 0.214335 0.375471 -0.29883 
0.139734 0.432301 -0.758041 0.101154 0.297231 -0.388734 0.173883 1.56755 -0.294287 
0.121133 1.33475 -0.314299 0.167717 1.40163 -0.672134 0.168248 1.2781 -0.835177 
0.196063 0.982412 -0.888418 0.742419 1.10371 -0.428282 0.498527 0.749195 -0.374982 
0.500753 1.44362 -0.463091 0.567088 1.19706 -0.484109 0.383965 1.94919 -0.642732 
0.283978 2.15132 -0.537518 0.325012 1.53623 -0.403298 0.387375 0.676077 -0.419103 
0.207874 0.527892 -0.291831 0.0911186 0.443555 -0.299289 0.100316 0.646257 -0.415814 
0.142209 1.12615 -0.300726 0.365021 0.818772 -0.334793 0.381596 0.998787 -0.380069 
0.382923 1.19579 -0.398699 0.300714 1.36893 -0.462231 0.242767 0.740797 -0.444572 
0.102887 0.928923 -0.269621 0.245324 1.0939 -0.444267 2.40248 1.57348 -29.2722 
2.37372 1.90909 -28.8987 2.36108 1.46578 -29.3049 2.06507 2.36304 -28.6549 
2.02702 2.59347 -28.3242 1.27559 2.85401 -28.6406 1.07923 2.94696 -28.6326 
0.723001 2.65561 -29.365 0.13092 2.90036 -28.9703 2.14531 1.57743 -0.606205 
1.13502 2.49079 -0.407637 0.882067 2.51161 -0.611421 0.169524 0.306841 -1.20436 
2.32183 1.98549 -28.0945 1.95988 1.9914 -28.4982 2.24463 2.38553 -27.3253 
2.70567 2.39283 -26.6531 1.88349 2.35192 -28.1478 2.63543 2.76113 -25.9638 
2.18287 2.79602 -26.6848 1.73152 2.70922 -27.5387 3.13544 2.64215 -25.0119 
2.22379 1.87376 -27.7648 1.43301 1.88645 -28.3951 1.34493 2.61286 -28.3576 
2.83543 3.13984 -24.3399 2.48205 3.1292 -25.3101 1.69958 3.15502 -26.6293 
3.26167 2.78061 -23.7519 1.13072 1.12015 -29.06 2.57469 2.25585 -26.3406 
2.03561 2.06679 -27.2249 0.987461 1.74205 -28.8324 1.06071 2.31631 -28.4028 
3.07469 3.1501 -23.3555 1.25451 3.01488 -27.5362 1.59705 3.593 -25.907 
3.43237 2.7775 -22.6452 0.886441 0.947721 -29.0624 1.57529 1.46964 -28.3616 
2.59243 2.33511 -25.474 1.79732 1.87312 -27.0424 0.606493 0.861711 -29.1904 
1.31749 1.49679 -28.0504 0.655263 1.88085 -28.7525 0.814742 2.73781 -28.4214 
3.03612 3.33943 -21.6556 1.1577 3.58366 -26.26 3.69288 2.9727 -20.4298 
1.31884 1.54865 -27.1781 0.450118 1.34945 -28.9119 0.359996 0.689141 -29.2332 
0.477812 2.70609 -28.6513 3.23778 3.34791 -20.2727 2.1664 3.93127 -22.6009 
1.62879 4.05426 -22.6879 1.04444 4.06953 -23.7525 3.66706 3.11858 -19.3823 
0.924242 1.23695 -28.1774 2.52947 2.42311 -23.7014 1.15554 1.6633 -26.4214 
0.838202 1.28331 -27.5106 0.507626 2.27188 -28.6811 2.80782 3.87049 -20.1219 
1.96842 4.10756 -21.1987 1.29006 4.44857 -22.4921 0.647622 3.72892 -26.0448 
2.99001 2.68999 -21.7385 2.31119 2.33239 -22.7667 0.80527 1.27995 -26.4928 
0.918725 1.41955 -25.0152 0.502175 0.988615 -27.9482 1.48373 4.3226 -21.4058 
0.792055 4.57681 -21.9959 0.621838 3.23826 -27.4329 3.30026 2.79348 -20.3444 
2.64219 2.50795 -21.501 0.785188 1.33211 -23.6017 2.86777 3.86708 -17.8549 
2.45782 4.00302 -18.7763 1.92912 4.15552 -18.9297 1.66919 4.4233 -19.8755 
1.14539 4.5907 -21.0068 3.57772 3.28225 -16.6459 3.05641 3.5549 -16.675 
3.76519 3.07823 -18.1677 1.53165 1.85087 -21.303 2.34455 4.11549 -17.5619 
1.17596 4.6864 -19.6938 3.72171 3.09659 -15.4791 3.40447 3.52611 -15.5332 
3.38874 2.92196 -18.6799 0.991061 1.49351 -21.7468 1.55482 1.8686 -19.9861 
1.75813 2.2206 -19.1221 0.591193 2.3082 -27.9116 1.88648 4.29209 -17.3834 
1.44874 4.57222 -18.3508 3.72493 3.14234 -14.368 3.36242 3.47163 -14.1475 
2.85226 2.57768 -17.9732 3.1487 2.74118 -17.3886 1.04489 1.68635 -19.9526 
0.677996 1.91033 -27.9183 0.741349 2.90631 -27.2725 2.6001 3.97646 -15.9482 
2.99405 3.78521 -14.9361 2.10246 4.27883 -15.966 1.46813 4.63711 -16.8403 
1.00638 4.79795 -18.1055 3.70313 3.16193 -13.3277 3.38856 3.50012 -13.0526 
3.34138 2.84832 -16.2898 0.672154 1.84017 -27.2258 0.79033 2.81423 -26.3403 
2.43957 4.04671 -14.0993 1.60042 4.45564 -15.0962 0.73768 4.66672 -20.4041 
0.839563 4.18936 -20.9963 3.70427 3.09908 -12.1096 3.26675 3.39637 -11.9238 
2.74649 2.49408 -15.8875 3.34489 2.84206 -15.1968 0.902868 1.51945 -17.5642 
1.93644 4.25198 -13.8025 1.42066 4.77594 -14.4136 2.81417 3.79471 -12.6128 
0.761143 4.89633 -16.7712 0.864325 3.42427 -24.7798 0.798044 4.35686 -19.4351 
3.39284 3.3943 -10.7371 2.19108 2.22837 -15.6936 0.905765 1.51603 -16.2689 
1.8641 2.04604 -14.447 1.16965 1.92482 -24.8805 2.33909 4.08099 -12.298 
1.39645 4.50749 -13.2885 3.02488 3.69895 -11.2079 0.749666 4.37914 -18.1581 
0.86683 3.88028 -19.7648 3.69693 3.02983 -10.4521 3.33631 2.85997 -13.0871 
0.876081 2.60239 -24.0573 0.933095 3.0768 -23.9284 2.19909 4.14446 -10.8849 
1.77611 4.34283 -11.7209 0.93749 4.78985 -13.116 0.78129 3.79084 -18.2756 
0.847209 3.3582 -19.5947 3.3747 3.26796 -9.02544 3.01731 3.51357 -9.70741 
2.39624 2.38702 -13.3515 3.0178 2.66875 -12.0481 2.01556 2.14122 -12.3166 
0.866495 1.46894 -18.7438 0.893658 1.7817 -23.3283 0.728661 1.82738 -22.126 
0.854571 2.92471 -22.6765 1.33135 4.54804 -11.2448 2.55863 3.90994 -9.78378 
0.860976 4.68372 -11.685 0.895271 3.12502 -18.5255 3.28074 2.86134 -10.8837 
2.49502 2.41709 -11.4066 0.87865 2.00591 -20.8033 0.905605 1.51947 -12.3847 
0.748544 1.98363 -17.8141 0.942656 2.36456 -22.5784 2.07627 3.99531 -9.05505 
1.62259 4.30432 -9.97524 0.841694 4.64149 -10.381 0.900985 2.71672 -20.3009 
0.896217 3.11812 -17.0371 0.962214 2.51599 -17.9151 3.34471 2.82501 -9.37465 
0.890036 2.38935 -19.3969 1.52463 4.23719 -8.66528 1.14676 4.55878 -9.25118 
0.88119 4.27163 -14.3927 0.831983 3.81835 -15.2222 0.907648 3.3213 -15.6188 
3.03595 3.02907 -5.81799 2.63215 3.5455 -7.09301 0.811736 2.11329 -16.2307 
0.785152 1.40505 -9.60126 1.64524 1.95892 -8.62624 1.95028 3.96346 -7.62843 
0.75106 4.74273 -8.83751 0.72588 4.39609 -12.884 3.37466 2.69639 -5.63489 
2.64866 3.37054 -5.84844 2.69222 2.52848 -7.91303 2.33026 2.29403 -8.3043 
1.96381 2.11202 -7.17375 2.01793 3.67998 -6.07085 1.56599 4.04691 -6.47567 
1.27148 4.26942 -7.59852 0.793689 3.88457 -13.0103 0.869458 3.44995 -13.8151 
0.863045 2.94335 -13.6285 3.00719 2.66211 -4.52332 2.59747 2.92903 -4.46457 
0.73518 2.03082 -13.0278 1.09011 1.54516 -6.81759 1.1159 4.24612 -6.46561 
0.8124 4.05022 -11.2062 2.18135 3.22383 -4.48875 1.77254 3.45931 -4.44078 
2.60112 2.42394 -6.31525 2.98636 2.57806 -5.95059 0.733694 1.34187 -5.81523 
1.60251 1.75559 -5.42688 1.43573 3.8761 -5.31588 0.71536 4.18231 -5.53694 
0.817163 3.64319 -11.1385 0.971011 3.2578 -11.9604 2.5229 2.24481 -2.66048 
2.29278 2.56011 -3.04379 2.14188 1.85987 -1.55888 1.93191 2.88035 -3.21404 
1.30961 3.45406 -3.70185 2.66242 2.38627 -4.72502 1.00711 1.46176 -4.96839 
1.36107 1.7179 -4.21886 1.04615 3.88621 -4.53133 0.724238 4.54333 -7.08033 
0.836185 4.13414 -8.19872 0.920496 3.35672 -10.0294 2.48523 2.24571 -3.48776 
1.67841 2.40233 -1.82926 1.90583 2.19239 -1.56334 1.45221 3.03874 -2.89079 
2.1424 2.15753 -4.15899 0.740257 1.2466 -3.84089 0.987954 1.36307 -3.24453 
0.788776 3.88785 -6.96907 0.705983 3.76282 -3.78893 0.787082 3.5527 -8.41543 
0.988556 2.34732 -9.15424 0.807881 2.91446 -8.81608 1.31474 2.61819 -1.7352 
1.03375 3.12848 -2.53007 1.4168 1.65316 -3.10853 0.863519 1.96496 -7.94001 
0.778289 3.41147 -6.82025 0.791599 2.54256 -7.44834 2.02746 1.80346 -1.95394 
1.69587 1.7161 -1.83756 0.575286 3.26402 -2.55322 1.57455 1.76243 -2.4231 
0.856954 1.96841 -6.48525 0.736467 3.11674 -5.6318 0.865898 2.86985 -6.72281 
0.957625 1.08854 -1.09735 0.509393 0.791985 -1.02546 0.704097 3.4347 -3.69521 
0.508196 2.91681 -1.58818 0.839081 2.05184 -5.03895 0.771955 2.92961 -3.23435 
0.71233 0.832734 -0.861398 0.717693 2.04754 -3.17012 1.57694 1.85021 -1.44195 
0.600819 1.02278 -2.25766 0.461552 2.04384 -1.40093 0.616279 1.52484 -2.19675 
1.30228 2.08285 -1.72815 0.845834 2.27251 -1.56298 0.643038 2.6373 -1.70837 
0.992385 1.5027 -1.21024 0.557196 1.57192 -1.06357 1.02612 2.6693 -0.676909 
0.922953 1.43231 -28.7403 2.3263 2.62561 -19.3889 0.909175 2.5514 -4.83828 
1.41411 2.32779 -27.4024 1.934 2.60629 -25.9602 2.33383 2.91403 -24.4079 
1.25689 2.92547 -26.5125 1.26212 2.1522 -26.7747 1.73613 2.55009 -24.3888 
2.39798 3.06807 -22.6507 2.66741 3.06209 -20.5177 1.82672 3.43181 -22.512 
1.14333 3.66102 -21.7461 1.7167 2.80215 -22.8702 2.68425 3.31651 -18.5829 
2.19556 3.4513 -19.9699 1.49461 2.62812 -20.9478 2.00757 3.44268 -18.2754 
1.32972 3.91081 -18.392 2.72713 3.26869 -15.4224 2.14928 3.5903 -16.7016 
1.89927 3.5271 -15.0975 1.72234 2.84964 -16.1625 2.07182 3.49635 -13.3863 
1.38674 3.7957 -14.4359 2.72752 3.11216 -11.1143 1.43352 3.89258 -12.524 
1.36962 4.16564 -16.1011 1.52791 2.78663 -14.0836 1.57582 3.52362 -20.5184 
2.14967 3.33276 -10.2241 1.45488 3.77777 -10.6296 1.60699 3.11175 -19.628 
2.66637 3.09574 -8.73287 2.25826 2.89285 -12.2743 1.60817 2.77278 -11.7252 
1.55632 2.83557 -18.0735 1.49366 2.79852 -9.59314 1.39624 3.50137 -8.2379 
2.17798 3.31948 -7.85144 2.39867 2.94398 -6.0783 1.42901 2.54118 -7.90434 
1.40811 3.38521 -6.25814 2.04573 2.75067 -7.42282 1.33508 2.50937 -6.1571 
1.76346 2.9601 -4.77646 1.57957 3.2568 -12.7014 1.92919 2.53509 -3.48622 
1.20141 3.17038 -4.15982 1.2666 2.48001 -2.76578 1.1049 1.86163 -2.36052 
1.49443 3.34763 -24.1604 2.07408 2.87587 -21.2867 2.77961 3.28405 -13.431 
2.44922 3.04858 -16.762 2.25385 2.81848 -14.5003 1.38446 3.56653 -16.8655 
1.04718 2.65556 -16.2428 1.54747 2.40308 -4.41526 2.19537 3.58198 -11.6881 
1.80833 2.61708 -28.6497 0.355311 1.52273 -3.25249 0.596984 2.05626 -11.7344 
0.931435 3.10437 -21.2012 1.21084 1.15724 -22.8429 2.09577 2.17031 -20.9662 
1.68655 1.96906 -25.6741 2.42417 4.08673 -23.2518 0.442107 5.07237 -10.6646 
0.905387 2.49251 -12.7445 3.09351 3.27802 -7.49623 0.394211 4.78832 -7.6779 
2.24547 2.44424 -9.85272 3.03532 2.69588 -7.38425 0.511976 1.14879 -28.5291 
3.33152 3.51625 -18.4609 2.25675 2.12019 -25.1406 0.218925 1.43598 -29.4451 
1.74032 3.31543 -27.114 0.34807 2.28316 -7.12163 0.911696 2.67731 -10.7184 
2.04253 2.14591 -5.68367 2.6451 3.6821 -24.2913 1.54092 4.74363 -8.73302 
1.63229 2.05863 -10.4135 2.52718 4.31283 -21.4824 1.56091 1.82643 -6.8723 
2.29372 3.36845 -26.0804 2.99099 2.61121 -19.4378 0.806536 3.85169 -16.7366 
0.75103 3.63268 -5.34183 0.350809 0.858211 -29.4182 3.39552 3.94604 -14.4009 
2.93461 2.63237 -14.1825 0.846159 4.38583 -16.7508 0.0870958 3.05196 -28.8756 
0.641584 2.73594 -0.440408 0.890287 2.34881 -14.5841 3.81514 3.52791 -15.8849 
1.03808 1.20908 -1.95504 2.04985 4.69167 -12.7029 0.658672 3.97341 -26.3304 
0.383153 4.19522 -25.7031 0.893773 4.72708 -14.7156 0.902352 0.845515 -27.3364 
0.165212 0.541531 -29.5753 0.197074 0.516363 -29.2685 0.810405 5.16685 -17.6788 
1.65797 2.1558 -23.2421 0.875371 5.17408 -15.0719 0.235491 0.628299 -0.750032 
3.7091 2.81338 -8.48739 1.66285 3.81513 -24.4622 3.63558 3.78812 -16.5983 
2.62223 3.77432 -21.4679 1.35699 1.87666 -13.6504 0.947891 3.68883 -25.2328 
2.54122 3.82292 -8.34603 2.18948 2.23828 -17.5624 3.84189 3.51198 -18.8347 
1.34968 1.8675 -17.6217 0.826381 2.4101 -25.8571 3.45547 2.84763 -7.00249 
1.96581 1.96554 -0.760019 1.44651 1.20478 -1.86899 2.40159 4.40653 -19.7352 
0.92618 2.41775 -29.109 1.0414 5.15416 -16.6031 2.77843 2.10174 -20.5273 
2.98952 2.17849 -13.382 1.39136 3.68618 -26.5626 0.930988 4.71873 -22.9167 
3.5991 2.47128 -8.31691 2.90664 4.23914 -19.1654 2.69481 4.39781 -16.4933 
0.368752 2.64354 -22.3641 0.878158 3.93088 -22.8254 0.364668 2.43863 -27.183 
1.89221 1.56061 -13.5717 2.67828 3.61744 -5.37176 0.482062 5.21516 -16.0132 
2.54176 1.89223 -16.0417 2.06192 1.60259 -16.5569 0.339336 4.19494 -15.6567 
4.11312 2.96103 -10.9137 3.08881 4.00276 -9.37326 2.00257 1.57977 -20.8506 
0.167247 0.868788 -0.383871 3.1024 4.08283 -13.9168 0.855433 4.10234 -9.58996 
0.855575 3.52311 -2.56821 1.32315 0.947101 -0.77875 0.893308 4.36302 -24.661 
3.88466 3.54129 -14.7708 4.04244 2.72697 -21.6374 2.37403 1.84514 -11.0543 
0.502411 0.564529 -28.1468 1.15012 1.76079 -11.2358 2.72453 2.00369 -5.84411 
0.328012 3.65002 -25.3179 1.33632 4.17842 -24.9785 0.423542 1.829 -24.85 
0.252855 1.22516 -29.4322 3.55303 2.79075 -21.5074 0.247431 1.12732 -1.50664 
2.91135 2.53624 -23.9923 0.615334 0.938097 -0.430561 2.15874 3.39047 -25.0512 
3.76801 2.76899 -6.28191 3.51472 2.44281 -4.49879 3.45941 3.73611 -9.37875 
0.413301 3.22535 -22.1722 1.68293 1.49796 -19.1157 1.04637 0.990835 -29.5978 
0.775567 0.740489 -28.43 0.389524 1.69638 -17.8579 0.396955 2.93336 -16.4594 
1.22923 4.95936 -15.5791 2.92927 2.58319 -9.81089 0.622704 5.21768 -14.0493 
1.45838 2.01569 -15.7094 1.09444 1.58008 -8.65336 1.40495 1.35827 -15.9935 
0.347813 3.7897 -4.62243 0.507679 5.20115 -12.5966 0.511858 3.25262 -23.153 
0.382259 3.24978 -7.63258 1.03574 1.38991 -0.605961 0.517702 1.16879 -0.995616 
3.19619 2.23944 -16.854 3.00921 2.49271 -3.42509 1.51086 2.53543 -0.676831 
2.32342 1.72355 -29.3341 0.341245 3.33911 -5.39583 0.421248 3.83205 -24.1537 
1.19615 1.19299 -0.855565 0.237848 0.753348 -27.9315 2.61925 1.93503 -23.9278 
0.6366 2.03938 -2.14652 3.18361 2.2561 -8.58566 0.461069 3.71828 -20.7903 
2.82219 2.08087 -10.7661 2.06952 1.76905 -24.3921 0.594954 2.0824 -9.87737 
2.55277 3.54624 -23.2298 1.14956 4.783 -7.8926 2.06161 1.61185 -15.2771 
0.362148 2.19724 -25.4551 1.1011 3.61223 -27.0511 0.372033 4.39526 -22.1352 
1.47426 4.89593 -20.0865 0.480369 3.4735 -2.32362 1.02156 4.32023 -5.10779 
3.17719 3.47863 -6.52543 3.20227 2.23166 -7.06236 0.351307 3.02449 -10.8571 
1.94193 3.29196 -3.19286 0.474507 5.10345 -19.9051 0.247227 1.74113 -29.3393 
1.9911 1.57886 -22.2978 1.62668 1.50882 -28.7982 0.994058 3.93922 -3.79236 
3.18683 3.73991 -21.9848 0.841026 1.49752 -14.3733 4.1806 3.0158 -19.2339 
0.427342 1.65024 -26.4261 2.02432 3.74391 -25.6108 1.8345 4.86108 -17.9707 
0.872848 2.76283 -3.92607 3.90745 3.42779 -17.3877 1.71682 4.57925 -21.9477 
3.66664 2.62605 -5.37931 1.03565 0.947723 -3.80494 1.20189 2.6229 -29.4793 
0.295811 2.99943 -0.82137 0.0277907 2.6899 -0.131902 1.04816 2.5308 -0.264767 
2.43192 1.51463 -29.4359 1.01877 2.45191 -0.0963132 1.94117 1.79672 -29.8333 
0.104487 0.121043 -0.313605 0.203824 2.63833 -0.264315 1.75392 2.14628 -29.6459 
2.04981 1.67968 -29.746 1.31652 2.34444 -0.368091 2.40247 1.43004 -29.4831 
1.21259 2.38919 -29.6334 0.0293141 2.69707 -29.7523 2.13087 1.59445 -29.7233 
1.02739 2.57378 -0.275554 1.07957 2.41498 -0.143541 2.0482 1.75987 -0.358637 
1.76872 2.15819 -0.438171 2.03649 1.87839 -0.374952 2.22201 1.37106 -0.384565 
2.64255 1.59817 -28.9147 0.911492 2.50553 -29.8506 0.0960724 2.8395 -29.32 
0.903165 2.65815 -29.5016 0.133818 2.69312 -0.219865 1.48194 2.31927 -0.474685 
1.45041 2.29571 -29.5551 0.340439 2.77142 -0.459272 1.02315 2.43718 -29.6086 
0.886151 2.49737 -0.240249 0.646754 2.74613 -29.5382 0.0953871 0.104937 -29.8743 
0.757259 2.62525 -0.483851 0.0557121 2.9735 -0.772052 1.10578 2.41921 -0.138335 
1.61946 2.18591 -0.39544 0.79066 2.58769 -29.6274 0.0639822 0.103321 -0.517512 
0.0325036 0.126416 -0.123912 0.0535439 0.194411 -0.143107 2.17145 1.67645 -29.4963 
1.50063 2.23339 -29.7713 1.3044 2.42337 -0.376615 1.96122 1.96115 -29.6581 
0.703146 2.61817 -29.7278 0.558938 2.60474 -0.225877 2.00805 1.91655 -0.343009 
1.62016 2.13115 -29.7193 0.191841 5.4497 -16.2294 0.0903003 3.2963 -28.477 
3.85422 2.41129 -5.05503 1.78289 2.10361 -0.557901 1.06379 0.69026 -0.264077 
1.16643 2.45301 -0.28819 1.87944 1.89274 -0.273847 0.0504017 0.0885526 -29.645 
0.185449 5.38108 -12.9858 0.276081 2.68905 -29.5963 0.183095 5.39992 -14.4628 
0.0692693 3.36618 -1.65258 0.0648939 0.506077 -29.8219 0.0976449 0.171642 -29.7488 
2.58304 1.54807 -0.937742 2.22781 1.55436 -0.42282 0.212124 5.24777 -20.3064 
4.07339 2.49927 -23.9423 4.36544 2.72367 -8.53896 0.0503013 1.46877 -29.8282 
0.0666042 2.17276 -29.6724 0.0740471 2.33246 -0.296046 2.93466 1.78265 -28.1669 
0.129723 5.37839 -16.5145 0.0482846 0.19927 -29.8564 4.21628 2.58831 -23.0524 
2.76952 1.68893 -1.45451 0.0670557 2.6331 -0.366291 0.677407 0.446894 -29.8463 
1.57776 0.997885 -29.7219 4.6179 2.82717 -16.1987 3.01442 1.86036 -2.12954 
0.258115 0.198992 -0.12738 0.11703 3.84193 -2.89683 0.0947397 2.54409 -29.4933 
0.19096 4.92604 -23.084 4.59278 2.8208 -17.1606 0.146359 5.1339 -8.36315 
0.150828 5.21762 -9.33627 0.168347 0.291469 -20.3489 0.0872398 2.05512 -0.275274 
4.24 2.62596 -7.29902 0.159178 5.28236 -10.3392 0.136312 5.0123 -7.41233 
3.90008 2.40429 -24.8354 3.66309 2.27097 -4.21366 0.135225 4.86342 -6.51446 
0.131562 4.68352 -5.61485 4.43178 2.71519 -21.1763 0.0530595 1.23804 -29.8114 
4.34455 2.66198 -22.1228 3.69163 2.29858 -25.6815 0.147261 0.255699 -5.73112 
0.124445 4.18888 -3.84649 1.8528 1.16059 -29.66 0.127934 4.46071 -4.72885 
0.859882 0.559965 -29.8105 1.0507 0.660396 -29.7999 0.0760565 1.02792 -29.7654 
0.254241 0.222345 -29.8252 0.177571 4.67219 -24.4061 4.50339 2.75768 -20.2307 
4.54627 2.78717 -19.2036 0.168778 0.29249 -17.6622 0.0714689 1.62895 -0.243871 
0.176064 4.44612 -25.3062 0.198999 4.14902 -26.1908 0.0916214 0.176904 -28.1369 
1.26248 0.81023 -0.241565 0.166385 0.290336 -21.6941 0.169229 0.293585 -19.0058 
0.0715734 3.19359 -1.3275 0.0557108 0.966585 -0.159525 4.58459 2.81193 -18.2061 
0.10595 0.199575 -2.61381 0.154759 0.27482 -23.0091 0.143494 0.268793 -24.2636 
0.156798 0.28398 -12.3015 0.130191 0.240299 -4.55617 0.156841 0.282134 -9.60121 
0.120618 0.226164 -26.4827 0.133449 0.251022 -25.4395 0.121659 0.223639 -3.51024 
0.108513 0.202916 -27.3743 2.13392 1.69559 -0.465738 4.12836 2.5531 -6.45142 
2.69242 1.67765 -28.6992 0.20464 5.06302 -22.1678 4.51927 2.80718 -10.969 
4.46707 2.77959 -9.98353 0.100384 0.157706 -29.0352 4.54159 2.82796 -12.0093 
4.59632 2.84144 -14.0509 4.60226 2.83773 -15.1133 4.57387 2.83308 -13.0138 
0.0976042 0.181955 -1.85642 0.15588 0.288693 -16.3155 0.163828 0.288413 -8.25926 
0.201705 5.15799 -21.2303 0.127295 3.56902 -27.7382 0.218605 5.30007 -19.2466 
0.168577 0.293796 -10.9438 0.168494 0.291696 -14.9753 0.168494 0.29177 -13.6355 
0.174306 5.36067 -11.9019 0.0919345 0.150731 -1.22113 0.544799 0.391151 -0.183227 
0.407821 0.294033 -0.181346 0.702584 0.481571 -0.198183 0.880249 0.582717 -0.221633 
0.160358 0.28136 -6.94979 0.0750966 0.168435 -28.7353 1.50189 0.942523 -0.270738 
0.0461212 0.334254 -0.175518 0.0655269 1.37243 -0.182783 0.0550286 0.345072 -29.8321 
0.060884 0.633737 -0.183184 3.41799 2.10855 -3.35791 0.0588888 0.66957 -29.8075 
0.222469 5.34845 -18.1879 0.0555253 0.468359 -0.169521 3.29054 2.06263 -27.0261 
1.76475 1.09709 -0.312415 0.0558958 2.68876 -0.29814 1.05355 2.4221 -0.0862202 
0.0683928 0.152094 -0.381923 0.0486227 0.127983 -0.248581 2.26171 1.35225 -29.6845 
1.00986 2.52645 -0.112804 1.98127 1.81425 -0.203297 0.0843249 0.112575 -0.105782 
0.861547 2.52508 -29.8774 0.051134 0.135924 -29.8744 2.5845 1.55556 -29.0804 
0.0610048 2.74275 -29.509 2.53628 1.49337 -29.2142 1.52227 2.27104 -0.428381 
1.78553 2.12374 -29.4669 2.00146 1.77222 -0.323672 1.25032 2.3888 -29.8277 
0.0577678 2.99218 -29.0906 1.26905 2.47731 -0.537241 0.287023 2.6776 -0.254259 
2.27858 1.47446 -0.407394 2.02263 1.91665 -29.3781 0.091984 3.39566 -28.1596 
0.0636104 3.03304 -1.00426 0.574778 2.67418 -29.6233 1.36941 2.26774 -29.8072 
1.90629 1.98692 -29.6531 0.0487203 0.0666698 -29.7886 2.32771 1.39764 -0.316975 
0.73957 2.55511 -29.7813 1.72046 2.18394 -29.4154 1.85623 2.13569 -0.466849 
0.180501 4.84467 -23.5449 0.0802129 2.522 -0.430279 0.148402 5.38719 -17.176 
0.107304 1.93472 -0.305863 1.8819 1.97862 -0.339572 0.0911023 0.117699 -0.739528 
0.958957 2.56227 -0.319475 1.67649 2.18043 -0.279699 0.0758005 0.11865 -29.2945 
2.07553 1.29218 -0.384326 4.40706 2.73858 -8.96992 0.681401 2.6943 -29.6584 
2.85519 1.76607 -1.74559 0.143288 2.72968 -29.5524 2.65748 1.60068 -1.18022 
1.59339 2.18451 -29.7021 4.43732 2.72934 -20.7313 0.192346 0.352883 -17.0608 
0.19017 0.345412 -22.2866 0.196446 0.336443 -19.5801 3.03918 1.87189 -27.8238 
1.09285 2.45076 -29.6665 0.0771467 2.1843 -0.295839 0.153474 5.36848 -13.9301 
4.272 2.63329 -22.5873 0.144609 4.92902 -6.96282 1.71013 1.09718 -29.6886 
4.58023 2.84584 -15.6643 0.0935777 2.00112 -29.7354 1.43587 0.953955 -29.7322 
3.54599 2.25935 -26.1189 0.0680428 2.2986 -29.6846 0.151992 5.25308 -9.83676 
2.87481 1.74637 -28.3848 0.127649 4.57567 -5.15376 0.157919 0.271914 -6.31468 
3.14991 1.94278 -2.51675 0.210166 4.54591 -24.881 0.134414 4.32991 -4.28908 
3.78901 2.36089 -25.274 0.115784 4.01934 -3.37072 4.51057 2.78562 -19.7059 
0.15586 5.17411 -8.85045 0.215532 4.77525 -23.9733 0.152589 4.34349 -25.7269 
4.17279 2.62171 -6.88536 4.3844 2.69034 -21.6619 4.43691 2.78139 -9.48978 
4.47295 2.80467 -10.4719 4.50933 2.83366 -11.4776 4.65275 2.80988 -16.6542 
4.56101 2.83119 -12.5084 0.132784 4.78166 -6.04413 4.57884 2.85278 -13.5316 
4.60042 2.86116 -14.5741 0.140818 5.07906 -7.87245 0.118185 3.62237 -2.3647 
4.04149 2.52322 -5.99173 0.163828 0.288413 -7.59147 4.5896 2.82056 -17.6665 
4.56581 2.80097 -18.6963 0.205088 5.39936 -15.0291 0.143477 4.00008 -26.6893 
1.97928 1.2358 -29.6888 4.30461 2.6433 -7.71884 0.146849 0.259573 -5.11173 
0.168505 0.291777 -12.9648 0.168494 0.291725 -14.3044 0.168595 0.293806 -10.2678 
0.053844 0.0854052 -29.4649 0.169175 5.31305 -10.8858 4.1728 2.55114 -23.4871 
4.00875 2.46306 -24.4022 0.168494 0.291973 -15.6465 0.100705 0.16777 -1.53023 
0.113195 0.198234 -2.21789 0.111317 0.193608 -27.7748 0.119803 0.21455 -3.03786 
0.123246 0.218493 -26.9426 0.13729 0.244929 -4.01351 0.143353 0.24117 -25.9705 
0.154273 0.265131 -24.8657 0.160629 0.280924 -23.6347 0.168577 0.293796 -11.6247 
0.163828 0.288413 -8.92705 0.099383 0.163211 -28.4638 0.143513 0.248647 -21.0246 
0.145966 0.251435 -18.3331 1.07237 2.4908 -0.348719 0.0454212 2.86052 -0.55169 
0.827983 2.56209 -29.7201 0.0911267 0.108679 -29.7568 0.9994 2.57814 -0.277025 
0.0727454 2.62195 -29.5288 1.75391 2.07149 -29.8369 0.142174 0.144646 -29.8791 
0.0365144 2.91456 -29.2851 2.42905 1.48701 -0.637572 0.0340641 0.0850053 -0.339571 
0.0349714 0.0650914 -0.0875282 0.0379128 0.077471 -29.9031 0.0794967 0.137777 -0.966202 
0.0421002 0.0690921 -0.220995 
METADATA
INFORMATION 2
NAME L2_NORM_RANGE LOCATION vtkDataArray
DATA 2 0.0300678 30.1045 
NAME L2_NORM_FINITE_RANGE LOCATION vtkDataArray
DATA 2 0.0300678 30.1045 

